 $CONTRL SCFTYP=RHF RUNTYP=ENERGY MAXIT=1 MULT=1 ispher=1 $END
 $contrl nprint=-5 inttyp=best $end
 $SYSTEM mwords=300 memddi=300 $END
 $BASIS gbasis=pcSeg-0 $END
 $SCF DIRSCF=.TRUE. $END
 $DATA 
gly30
C1
N     7.0   -92.90313   -10.12310    -0.00000
C     6.0   -91.45638   -10.12310    -0.00000
C     6.0   -90.93489   -10.12310     1.43350
O     8.0   -91.66459   -10.12310     2.42187
H     1.0   -91.10426   -11.01908    -0.52238
H     1.0   -91.10340    -9.23009    -0.52356
H     1.0   -93.37537   -10.12562     0.89965
H     1.0   -93.41113   -10.04641    -0.87653
N     7.0   -89.61528   -10.12310     1.66639
C     6.0   -89.12068   -10.12288     3.02597
C     6.0   -87.59527   -10.12292     3.02597
O     8.0   -86.91592   -10.12312     2.00234
H     1.0   -89.49117    -9.22679     3.53531
H     1.0   -89.49205   -11.01579     3.53683
H     1.0   -88.93128   -10.12072     0.91504
N     7.0   -86.92527   -10.12275     4.18645
C     6.0   -85.47851   -10.12301     4.18645
C     6.0   -84.95702   -10.12273     5.61994
O     8.0   -85.68672   -10.12234     6.60831
H     1.0   -85.12656   -11.01920     3.66430
H     1.0   -85.12537    -9.23020     3.66265
H     1.0   -87.39750   -10.12495     5.08610
N     7.0   -83.63741   -10.12291     5.85284
C     6.0   -83.14281   -10.12243     7.21242
C     6.0   -81.61740   -10.12275     7.21242
O     8.0   -80.93805   -10.12334     6.18879
H     1.0   -83.51314    -9.22614     7.72152
H     1.0   -83.51434   -11.01514     7.72351
H     1.0   -82.95341   -10.12086     5.10149
N     7.0   -80.94740   -10.12239     8.37289
C     6.0   -79.50065   -10.12292     8.37289
C     6.0   -78.97915   -10.12237     9.80639
O     8.0   -79.70885   -10.12159    10.79476
H     1.0   -79.14885   -11.01931     7.85098
H     1.0   -79.14735    -9.23031     7.84887
H     1.0   -81.41963   -10.12428     9.27255
N     7.0   -77.65955   -10.12272    10.03929
C     6.0   -77.16494   -10.12198    11.39887
C     6.0   -75.63953   -10.12258    11.39887
O     8.0   -74.96018   -10.12355    10.37523
H     1.0   -77.53511    -9.22549    11.90774
H     1.0   -77.53663   -11.01449    11.91018
H     1.0   -76.97554   -10.12099     9.28794
N     7.0   -74.96953   -10.12204    12.55934
C     6.0   -73.52278   -10.12283    12.55934
C     6.0   -73.00128   -10.12200    13.99284
O     8.0   -73.73099   -10.12083    14.98121
H     1.0   -73.17115   -11.01942    12.03766
H     1.0   -73.16932    -9.23042    12.03508
H     1.0   -75.44177   -10.12361    13.45900
N     7.0   -71.68168   -10.12254    14.22573
C     6.0   -71.18707   -10.12153    15.58531
C     6.0   -69.66166   -10.12241    15.58531
O     8.0   -68.98231   -10.12377    14.56168
H     1.0   -71.55708    -9.22485    16.09395
H     1.0   -71.55893   -11.01384    16.09686
H     1.0   -70.99767   -10.12112    13.47438
N     7.0   -68.99166   -10.12169    16.74579
C     6.0   -67.54491   -10.12274    16.74579
C     6.0   -67.02342   -10.12163    18.17928
O     8.0   -67.75312   -10.12008    19.16765
H     1.0   -67.19344   -11.01953    16.22434
H     1.0   -67.19129    -9.23053    16.22130
H     1.0   -69.46390   -10.12294    17.64544
N     7.0   -65.70381   -10.12235    18.41218
C     6.0   -65.20920   -10.12108    19.77176
C     6.0   -63.68380   -10.12223    19.77176
O     8.0   -63.00445   -10.12399    18.74813
H     1.0   -65.57905    -9.22420    20.28017
H     1.0   -65.58122   -11.01319    20.28354
H     1.0   -65.01981   -10.12125    17.66083
N     7.0   -63.01380   -10.12134    20.93223
C     6.0   -61.56704   -10.12265    20.93224
C     6.0   -61.04555   -10.12127    22.36573
O     8.0   -61.77525   -10.11932    23.35410
H     1.0   -61.21574   -11.01964    20.41102
H     1.0   -61.21326    -9.23064    20.40752
H     1.0   -63.48603   -10.12227    21.83189
N     7.0   -59.72594   -10.12216    22.59863
C     6.0   -59.23134   -10.12063    23.95821
C     6.0   -57.70593   -10.12206    23.95821
O     8.0   -57.02658   -10.12420    22.93458
H     1.0   -59.60102    -9.22355    24.46638
H     1.0   -59.60352   -11.01254    24.47022
H     1.0   -59.04194   -10.12139    21.84728
N     7.0   -57.03593   -10.12099    25.11868
C     6.0   -55.58918   -10.12256    25.11868
C     6.0   -55.06768   -10.12090    26.55218
O     8.0   -55.79738   -10.11857    27.54055
H     1.0   -55.23803   -11.01974    24.59770
H     1.0   -55.23523    -9.23076    24.59373
H     1.0   -57.50817   -10.12160    26.01834
N     7.0   -53.74808   -10.12198    26.78507
C     6.0   -53.25347   -10.12018    28.14465
C     6.0   -51.72806   -10.12189    28.14466
O     8.0   -51.04871   -10.12442    27.12102
H     1.0   -53.62299    -9.22290    28.65260
H     1.0   -53.62581   -11.01189    28.65690
H     1.0   -53.06407   -10.12152    26.03372
N     7.0   -51.05806   -10.12064    29.30513
C     6.0   -49.61131   -10.12247    29.30513
C     6.0   -49.08981   -10.12054    30.73862
O     8.0   -49.81952   -10.11782    31.72699
H     1.0   -49.26033   -11.01985    28.78438
H     1.0   -49.25720    -9.23087    28.77995
H     1.0   -51.53030   -10.12093    30.20478
N     7.0   -47.77021   -10.12179    30.97152
C     6.0   -47.27560   -10.11973    32.33110
C     6.0   -45.75020   -10.12172    32.33110
O     8.0   -45.07085   -10.12463    31.30747
H     1.0   -47.64496    -9.22225    32.83881
H     1.0   -47.64811   -11.01124    32.84357
H     1.0   -47.08620   -10.12165    30.22017
N     7.0   -45.08019   -10.12028    33.49157
C     6.0   -43.63344   -10.12238    33.49158
C     6.0   -43.11195   -10.12017    34.92507
O     8.0   -43.84165   -10.11706    35.91344
H     1.0   -43.28262   -11.01996    32.97106
H     1.0   -43.27917    -9.23098    32.96616
H     1.0   -45.55243   -10.12026    34.39123
N     7.0   -41.79234   -10.12160    35.15797
C     6.0   -41.29773   -10.11928    36.51755
C     6.0   -39.77233   -10.12154    36.51755
O     8.0   -39.09298   -10.12485    35.49392
H     1.0   -41.66692    -9.22161    37.02502
H     1.0   -41.67040   -11.01059    37.03025
H     1.0   -41.10834   -10.12178    34.40662
N     7.0   -39.10233   -10.11993    37.67802
C     6.0   -37.65558   -10.12230    37.67802
C     6.0   -37.13408   -10.11980    39.11152
O     8.0   -37.86378   -10.11631    40.09988
H     1.0   -37.30492   -11.02007    37.15774
H     1.0   -37.30114    -9.23109    37.15238
H     1.0   -39.57456   -10.11959    38.57768
N     7.0   -35.81447   -10.12142    39.34442
C     6.0   -35.31987   -10.11883    40.70399
C     6.0   -33.79446   -10.12137    40.70400
O     8.0   -33.11511   -10.12507    39.68037
H     1.0   -35.68889    -9.22096    41.21124
H     1.0   -35.69269   -11.00994    41.21693
H     1.0   -35.13047   -10.12191    38.59307
N     7.0   -33.12446   -10.11958    41.86447
C     6.0   -31.67771   -10.12221    41.86447
C     6.0   -31.15621   -10.11944    43.29796
O     8.0   -31.88591   -10.11555    44.28633
H     1.0   -31.32722   -11.02018    41.34442
H     1.0   -31.32311    -9.23120    41.33860
H     1.0   -33.59670   -10.11891    42.76412
N     7.0   -29.83661   -10.12123    43.53086
C     6.0   -29.34200   -10.11839    44.89044
C     6.0   -27.81659   -10.12120    44.89044
O     8.0   -27.13725   -10.12528    43.86682
H     1.0   -29.71086    -9.22031    45.39745
H     1.0   -29.71499   -11.00929    45.40361
H     1.0   -29.15260   -10.12205    42.77951
N     7.0   -27.14659   -10.11923    46.05092
C     6.0   -25.69984   -10.12212    46.05092
C     6.0   -25.17834   -10.11907    47.48441
O     8.0   -25.90804   -10.11480    48.47278
H     1.0   -25.34951   -11.02029    45.53110
H     1.0   -25.34508    -9.23131    45.52481
H     1.0   -27.61883   -10.11824    46.95057
N     7.0   -23.85874   -10.12104    47.71731
C     6.0   -23.36413   -10.11794    49.07689
C     6.0   -21.83873   -10.12103    49.07689
O     8.0   -21.15938   -10.12550    48.05327
H     1.0   -23.73283    -9.21966    49.58367
H     1.0   -23.73728   -11.00864    49.59028
H     1.0   -23.17474   -10.12218    46.96596
N     7.0   -21.16872   -10.11888    50.23736
C     6.0   -19.72197   -10.12203    50.23737
C     6.0   -19.20048   -10.11871    51.67086
O     8.0   -19.93017   -10.11404    52.65922
H     1.0   -19.37181   -11.02040    49.71778
H     1.0   -19.36705    -9.23143    49.71103
H     1.0   -21.64096   -10.11757    51.13702
N     7.0   -17.88087   -10.12086    51.90376
C     6.0   -17.38626   -10.11749    53.26333
C     6.0   -15.86086   -10.12086    53.26334
O     8.0   -15.18151   -10.12571    52.23971
H     1.0   -17.75480    -9.21902    53.76988
H     1.0   -17.75958   -11.00799    53.77696
H     1.0   -17.19687   -10.12231    51.15241
N     7.0   -15.19086   -10.11853    54.42381
C     6.0   -13.74411   -10.12194    54.42381
C     6.0   -13.22261   -10.11834    55.85730
O     8.0   -13.95231   -10.11329    56.84567
H     1.0   -13.39410   -11.02051    53.90446
H     1.0   -13.38903    -9.23154    53.89725
H     1.0   -15.66309   -10.11690    55.32346
N     7.0   -11.90301   -10.12067    56.09020
C     6.0   -11.40840   -10.11704    57.44978
C     6.0    -9.88299   -10.12068    57.44979
O     8.0    -9.20365   -10.12593    56.42616
H     1.0   -11.77677    -9.21837    57.95609
H     1.0   -11.78187   -11.00734    57.96364
H     1.0   -11.21900   -10.12244    55.33886
N     7.0    -9.21299   -10.11818    58.61026
C     6.0    -7.76624   -10.12185    58.61026
C     6.0    -7.24474   -10.11798    60.04375
O     8.0    -7.97444   -10.11254    61.03211
H     1.0    -7.41640   -11.02062    58.09114
H     1.0    -7.41100    -9.23165    58.08346
H     1.0    -9.68522   -10.11623    59.50991
N     7.0    -5.92514   -10.12048    60.27665
C     6.0    -5.43053   -10.11659    61.63623
C     6.0    -3.90512   -10.12051    61.63623
O     8.0    -3.22578   -10.12615    60.61261
H     1.0    -5.79874    -9.21772    62.14231
H     1.0    -5.80416   -11.00669    62.15031
H     1.0    -5.24113   -10.12257    59.52530
O     8.0    -3.30380   -10.11746    62.84603
H     1.0    -3.89216   -10.11258    63.73255
 $END
!TRAVIS-CI SKIP
!Only runs one SCF iteration


