 $CONTRL SCFTYP=RHF RUNTYP=ENERGY MAXIT=1 MULT=1 ispher=1 $END
 $contrl nprint=-5 inttyp=best $end
 $SYSTEM mwords=300 memddi=300 $END
 $BASIS gbasis=pcSeg-0 $END
 $SCF DIRSCF=.TRUE. $END
 $DATA 
gly50
C1
N     7.0     0.00000     0.00000     0.00000
C     6.0     1.44675     0.00000     0.00000
C     6.0     1.96825     0.00000     1.43350
O     8.0     1.23855     0.00000     2.42187
H     1.0     1.79887    -0.89599    -0.52238
H     1.0     1.79973     0.89301    -0.52356
H     1.0    -0.47223    -0.00252     0.89965
H     1.0    -0.50800     0.07669    -0.87653
N     7.0     3.28785    -0.00000     1.66639
C     6.0     3.78246     0.00022     3.02597
C     6.0     5.30787     0.00017     3.02597
O     8.0     5.98722    -0.00002     2.00234
H     1.0     3.41197     0.89631     3.53531
H     1.0     3.41109    -0.89269     3.53683
H     1.0     3.97186     0.00237     0.91504
N     7.0     5.97787     0.00035     4.18645
C     6.0     7.42462     0.00009     4.18645
C     6.0     7.94612     0.00037     5.61994
O     8.0     7.21641     0.00075     6.60831
H     1.0     7.77658    -0.89610     3.66430
H     1.0     7.77776     0.89290     3.66265
H     1.0     5.50563    -0.00185     5.08610
N     7.0     9.26572     0.00019     5.85284
C     6.0     9.76033     0.00067     7.21242
C     6.0    11.28573     0.00034     7.21242
O     8.0    11.96509    -0.00024     6.18879
H     1.0     9.39000     0.89695     7.72152
H     1.0     9.38879    -0.89204     7.72351
H     1.0     9.94972     0.00224     5.10149
N     7.0    11.95573     0.00070     8.37289
C     6.0    13.40249     0.00018     8.37289
C     6.0    13.92398     0.00073     9.80639
O     8.0    13.19428     0.00151    10.79476
H     1.0    13.75428    -0.89621     7.85098
H     1.0    13.75579     0.89279     7.84887
H     1.0    11.48350    -0.00118     9.27255
N     7.0    15.24359     0.00037    10.03929
C     6.0    15.73819     0.00112    11.39887
C     6.0    17.26360     0.00052    11.39887
O     8.0    17.94295    -0.00046    10.37523
H     1.0    15.36803     0.89760    11.90774
H     1.0    15.36650    -0.89139    11.91018
H     1.0    15.92759     0.00211     9.28794
N     7.0    17.93360     0.00105    12.55934
C     6.0    19.38036     0.00027    12.55934
C     6.0    19.90185     0.00110    13.99284
O     8.0    19.17215     0.00226    14.98121
H     1.0    19.73199    -0.89632    12.03766
H     1.0    19.73382     0.89267    12.03508
H     1.0    17.46137    -0.00051    13.45900
N     7.0    21.22146     0.00056    14.22573
C     6.0    21.71606     0.00157    15.58531
C     6.0    23.24147     0.00069    15.58531
O     8.0    23.92082    -0.00067    14.56168
H     1.0    21.34606     0.89825    16.09395
H     1.0    21.34421    -0.89074    16.09686
H     1.0    21.90546     0.00198    13.47438
N     7.0    23.91147     0.00141    16.74579
C     6.0    25.35822     0.00036    16.74579
C     6.0    25.87972     0.00146    18.17928
O     8.0    25.15002     0.00302    19.16765
H     1.0    25.70969    -0.89643    16.22434
H     1.0    25.71185     0.89256    16.22130
H     1.0    23.43923     0.00016    17.64544
N     7.0    27.19932     0.00075    18.41218
C     6.0    27.69393     0.00202    19.77176
C     6.0    29.21934     0.00086    19.77176
O     8.0    29.89869    -0.00089    18.74813
H     1.0    27.32409     0.89890    20.28017
H     1.0    27.32191    -0.89009    20.28354
H     1.0    27.88333     0.00184    17.66083
N     7.0    29.88934     0.00176    20.93223
C     6.0    31.33609     0.00044    20.93224
C     6.0    31.85759     0.00183    22.36573
O     8.0    31.12788     0.00377    23.35410
H     1.0    31.68740    -0.89654    20.41102
H     1.0    31.68988     0.89245    20.40752
H     1.0    29.41710     0.00083    21.83189
N     7.0    33.17719     0.00093    22.59863
C     6.0    33.67180     0.00246    23.95821
C     6.0    35.19720     0.00103    23.95821
O     8.0    35.87656    -0.00110    22.93458
H     1.0    33.30212     0.89955    24.46638
H     1.0    33.29962    -0.88944    24.47022
H     1.0    33.86119     0.00171    21.84728
N     7.0    35.86720     0.00211    25.11868
C     6.0    37.31396     0.00053    25.11868
C     6.0    37.83545     0.00219    26.55218
O     8.0    37.10575     0.00453    27.54055
H     1.0    37.66510    -0.89665    24.59770
H     1.0    37.66791     0.89234    24.59373
H     1.0    35.39497     0.00150    26.01834
N     7.0    39.15506     0.00112    26.78507
C     6.0    39.64966     0.00291    28.14465
C     6.0    41.17507     0.00121    28.14466
O     8.0    41.85442    -0.00132    27.12102
H     1.0    39.28015     0.90019    28.65260
H     1.0    39.27732    -0.88879    28.65690
H     1.0    39.83906     0.00158    26.03372
N     7.0    41.84507     0.00246    29.30513
C     6.0    43.29182     0.00062    29.30513
C     6.0    43.81332     0.00256    30.73862
O     8.0    43.08362     0.00528    31.72699
H     1.0    43.64281    -0.89676    28.78438
H     1.0    43.64594     0.89223    28.77995
H     1.0    41.37284     0.00217    30.20478
N     7.0    45.13293     0.00131    30.97152
C     6.0    45.62753     0.00336    32.33110
C     6.0    47.15294     0.00138    32.33110
O     8.0    47.83229    -0.00154    31.30747
H     1.0    45.25818     0.90084    32.83881
H     1.0    45.25503    -0.88814    32.84357
H     1.0    45.81693     0.00145    30.22017
N     7.0    47.82294     0.00281    33.49157
C     6.0    49.26969     0.00071    33.49158
C     6.0    49.79119     0.00293    34.92507
O     8.0    49.06149     0.00603    35.91344
H     1.0    49.62051    -0.89687    32.97106
H     1.0    49.62396     0.89212    32.96616
H     1.0    47.35070     0.00284    34.39123
N     7.0    51.11079     0.00149    35.15797
C     6.0    51.60540     0.00381    36.51755
C     6.0    53.13081     0.00155    36.51755
O     8.0    53.81016    -0.00175    35.49392
H     1.0    51.23621     0.90149    37.02502
H     1.0    51.23273    -0.88749    37.03025
H     1.0    51.79480     0.00131    34.40662
N     7.0    53.80081     0.00316    37.67802
C     6.0    55.24756     0.00080    37.67802
C     6.0    55.76906     0.00329    39.11152
O     8.0    55.03936     0.00679    40.09988
H     1.0    55.59822    -0.89698    37.15774
H     1.0    55.60199     0.89201    37.15238
H     1.0    53.32857     0.00351    38.57768
N     7.0    57.08866     0.00168    39.34442
C     6.0    57.58327     0.00426    40.70399
C     6.0    59.10867     0.00172    40.70400
O     8.0    59.78802    -0.00197    39.68037
H     1.0    57.21424     0.90214    41.21124
H     1.0    57.21044    -0.88684    41.21693
H     1.0    57.77266     0.00118    38.59307
N     7.0    59.77868     0.00352    41.86447
C     6.0    61.22543     0.00089    41.86447
C     6.0    61.74692     0.00366    43.29796
O     8.0    61.01722     0.00754    44.28633
H     1.0    61.57592    -0.89709    41.34442
H     1.0    61.58002     0.89189    41.33860
H     1.0    59.30644     0.00418    42.76412
N     7.0    63.06653     0.00187    43.53086
C     6.0    63.56114     0.00471    44.89044
C     6.0    65.08654     0.00190    44.89044
O     8.0    65.76589    -0.00219    43.86682
H     1.0    63.19227     0.90279    45.39745
H     1.0    63.18815    -0.88619    45.40361
H     1.0    63.75053     0.00105    42.77951
N     7.0    65.75654     0.00387    46.05092
C     6.0    67.20329     0.00098    46.05092
C     6.0    67.72479     0.00402    47.48441
O     8.0    66.99509     0.00830    48.47278
H     1.0    67.55362    -0.89720    45.53110
H     1.0    67.55805     0.89178    45.52481
H     1.0    65.28431     0.00485    46.95057
N     7.0    69.04439     0.00205    47.71731
C     6.0    69.53900     0.00516    49.07689
C     6.0    71.06441     0.00207    49.07689
O     8.0    71.74376    -0.00240    48.05327
H     1.0    69.17030     0.90343    49.58367
H     1.0    69.16585    -0.88554    49.59028
H     1.0    69.72840     0.00092    46.96596
N     7.0    71.73441     0.00422    50.23736
C     6.0    73.18116     0.00107    50.23737
C     6.0    73.70266     0.00439    51.67086
O     8.0    72.97296     0.00905    52.65922
H     1.0    73.53133    -0.89731    49.71778
H     1.0    73.53608     0.89167    49.71103
H     1.0    71.26217     0.00552    51.13702
N     7.0    75.02226     0.00224    51.90376
C     6.0    75.51687     0.00561    53.26333
C     6.0    77.04228     0.00224    53.26334
O     8.0    77.72162    -0.00262    52.23971
H     1.0    75.14833     0.90408    53.76988
H     1.0    75.14356    -0.88489    53.77696
H     1.0    75.70627     0.00079    51.15241
N     7.0    77.71228     0.00457    54.42381
C     6.0    79.15903     0.00116    54.42381
C     6.0    79.68053     0.00476    55.85730
O     8.0    78.95083     0.00981    56.84567
H     1.0    79.50903    -0.89741    53.90446
H     1.0    79.51411     0.89156    53.89725
H     1.0    77.24004     0.00619    55.32346
N     7.0    81.00013     0.00243    56.09020
C     6.0    81.49474     0.00606    57.44978
C     6.0    83.02014     0.00241    57.44979
O     8.0    83.69949    -0.00283    56.42616
H     1.0    81.12636     0.90473    57.95609
H     1.0    81.12127    -0.88424    57.96364
H     1.0    81.68413     0.00065    55.33886
N     7.0    83.69015     0.00492    58.61026
C     6.0    85.13689     0.00125    58.61026
C     6.0    85.65839     0.00512    60.04375
O     8.0    84.92870     0.01056    61.03211
H     1.0    85.48674    -0.89752    58.09114
H     1.0    85.49214     0.89145    58.08346
H     1.0    83.21791     0.00686    59.50991
N     7.0    86.97800     0.00261    60.27665
C     6.0    87.47261     0.00651    61.63623
C     6.0    88.99801     0.00259    61.63623
O     8.0    89.67735    -0.00305    60.61261
H     1.0    87.10439     0.90538    62.14231
H     1.0    87.09897    -0.88359    62.15031
H     1.0    87.66200     0.00052    59.52530
N     7.0    89.66801     0.00527    62.79670
C     6.0    91.11476     0.00133    62.79671
C     6.0    91.63626     0.00549    64.23020
O     8.0    90.90657     0.01132    65.21856
H     1.0    91.46444    -0.89763    62.27782
H     1.0    91.47017     0.89134    62.26968
H     1.0    89.19578     0.00753    63.69636
N     7.0    92.95586     0.00280    64.46310
C     6.0    93.45047     0.00696    65.82267
C     6.0    94.97588     0.00276    65.82268
O     8.0    95.65522    -0.00327    64.79906
H     1.0    93.08243     0.90602    66.32852
H     1.0    93.07668    -0.88294    66.33699
H     1.0    93.63987     0.00039    63.71175
N     7.0    95.64588     0.00562    66.98315
C     6.0    97.09263     0.00142    66.98316
C     6.0    97.61413     0.00585    68.41664
O     8.0    96.88444     0.01207    69.40500
H     1.0    97.44214    -0.89774    66.46450
H     1.0    97.44819     0.89122    66.45590
H     1.0    95.17365     0.00820    67.88280
N     7.0    98.93373     0.00299    68.64955
C     6.0    99.42834     0.00741    70.00912
C     6.0   100.95374     0.00293    70.00913
O     8.0   101.63309    -0.00348    68.98551
H     1.0    99.06046     0.90667    70.51473
H     1.0    99.05438    -0.88229    70.52367
H     1.0    99.61773     0.00026    67.89820
N     7.0   101.62375     0.00598    71.16959
C     6.0   103.07049     0.00151    71.16961
C     6.0   103.59200     0.00622    72.60309
O     8.0   102.86230     0.01282    73.59145
H     1.0   103.41985    -0.89785    70.65118
H     1.0   103.42622     0.89111    70.64212
H     1.0   101.15152     0.00887    72.06925
N     7.0   104.91160     0.00317    72.83599
C     6.0   105.40621     0.00786    74.19556
C     6.0   106.93161     0.00310    74.19557
O     8.0   107.61095    -0.00370    73.17196
H     1.0   105.03849     0.90732    74.70095
H     1.0   105.03209    -0.88164    74.71034
H     1.0   105.59560     0.00013    72.08465
N     7.0   107.60162     0.00633    75.35604
C     6.0   109.04836     0.00160    75.35605
C     6.0   109.56986     0.00658    76.78954
O     8.0   108.84017     0.01358    77.77789
H     1.0   109.39755    -0.89796    74.83787
H     1.0   109.40425     0.89100    74.82833
H     1.0   107.12938     0.00955    76.25569
N     7.0   110.88947     0.00336    77.02244
C     6.0   111.38408     0.00831    78.38201
C     6.0   112.90948     0.00328    78.38202
O     8.0   113.58882    -0.00391    77.35841
H     1.0   111.01652     0.90796    78.88716
H     1.0   111.00980    -0.88099    78.89702
H     1.0   111.57347    -0.00001    76.27110
N     7.0   113.57948     0.00668    79.54249
C     6.0   115.02623     0.00169    79.54250
C     6.0   115.54773     0.00695    80.97598
O     8.0   114.81804     0.01433    81.96434
H     1.0   115.37525    -0.89807    79.02455
H     1.0   115.38228     0.89089    79.01455
H     1.0   113.10725     0.01022    80.44214
N     7.0   116.86733     0.00355    81.20889
C     6.0   117.36195     0.00875    82.56846
C     6.0   118.88735     0.00345    82.56847
O     8.0   119.56668    -0.00413    81.54486
H     1.0   116.99455     0.90861    83.07337
H     1.0   116.98750    -0.88034    83.08370
H     1.0   117.55133    -0.00014    80.45754
N     7.0   119.55735     0.00703    83.72893
C     6.0   121.00410     0.00178    83.72895
C     6.0   121.52560     0.00732    85.16243
O     8.0   120.79591     0.01509    86.15078
H     1.0   121.35296    -0.89818    83.21123
H     1.0   121.36031     0.89077    83.20077
H     1.0   119.08512     0.01089    84.62858
N     7.0   122.84520     0.00373    85.39534
C     6.0   123.33982     0.00920    86.75490
C     6.0   124.86521     0.00362    86.75492
O     8.0   125.54455    -0.00435    85.73131
H     1.0   122.97258     0.90926    87.25958
H     1.0   122.96521    -0.87969    87.27037
H     1.0   123.52920    -0.00027    84.64399
N     7.0   125.53522     0.00738    87.91538
C     6.0   126.98196     0.00187    87.91540
C     6.0   127.50347     0.00768    89.34888
O     8.0   126.77378     0.01584    90.33723
H     1.0   127.33066    -0.89828    87.39791
H     1.0   127.33834     0.89066    87.38698
H     1.0   125.06299     0.01156    88.81503
N     7.0   128.82307     0.00392    89.58178
C     6.0   129.31768     0.00965    90.94135
C     6.0   130.84308     0.00379    90.94136
O     8.0   131.52242    -0.00456    89.91776
H     1.0   128.95061     0.90990    91.44580
H     1.0   128.94292    -0.87904    91.45705
H     1.0   129.50707    -0.00040    88.83044
N     7.0   131.51309     0.00773    92.10183
C     6.0   132.95983     0.00196    92.10184
C     6.0   133.48134     0.00805    93.53532
O     8.0   132.75165     0.01660    94.52367
H     1.0   133.30836    -0.89839    91.58459
H     1.0   133.31636     0.89055    91.57320
H     1.0   131.04086     0.01223    93.00148
N     7.0   134.80093     0.00411    93.76823
C     6.0   135.29555     0.01010    95.12779
C     6.0   136.82095     0.00397    95.12781
O     8.0   137.50028    -0.00478    94.10421
H     1.0   134.92865     0.91055    95.63201
H     1.0   134.92062    -0.87839    95.64373
H     1.0   135.48493    -0.00054    93.01689
N     7.0   137.49096     0.00809    96.28827
C     6.0   138.93770     0.00205    96.28829
C     6.0   139.45920     0.00841    97.72177
O     8.0   138.72952     0.01735    98.71011
H     1.0   139.28607    -0.89850    95.77127
H     1.0   139.29439     0.89044    95.75942
H     1.0   137.01873     0.01290    97.18792
N     7.0   140.77880     0.00429    97.95468
C     6.0   141.27342     0.01055    99.31424
C     6.0   142.79881     0.00414    99.31426
O     8.0   143.47815    -0.00500    98.29065
H     1.0   140.90668     0.91120    99.81822
H     1.0   140.89833    -0.87774    99.83040
H     1.0   141.46280    -0.00067    97.20334
N     7.0   143.46882     0.00844   100.47472
C     6.0   144.91556     0.00214   100.47474
C     6.0   145.43707     0.00878   101.90822
O     8.0   144.70739     0.01810   102.89656
H     1.0   145.26377    -0.89861    99.95795
H     1.0   145.27242     0.89032    99.94564
H     1.0   142.99659     0.01357   101.37437
N     7.0   146.75667     0.00448   102.14113
C     6.0   147.25129     0.01100   103.50069
C     6.0   148.77668     0.00431   103.50071
O     8.0   149.45601    -0.00521   102.47710
H     1.0   146.88471     0.91184   104.00443
H     1.0   146.87604    -0.87709   104.01708
H     1.0   147.44066    -0.00080   101.38979
O     8.0   149.37801     0.00940   104.71049
H     1.0   148.78967     0.01765   105.59699
 $END
!TRAVIS-CI SKIP
!Only runs one SCF iteration


