 $CONTRL SCFTYP=RHF RUNTYP=ENERGY MAXIT=1 MULT=1 ispher=1 $END
 $contrl nprint=-5 inttyp=best $end
 $SYSTEM mwords=300 memddi=300 $END
 $BASIS gbasis=pcSeg-0 $END
 $SCF DIRSCF=.TRUE. $END
 $DATA 
gly90
C1
N     7.0     0.00000     0.00000     0.00000
C     6.0     1.44675     0.00000     0.00000
C     6.0     1.96825     0.00000     1.43350
O     8.0     1.23855     0.00000     2.42187
H     1.0     1.79887    -0.89599    -0.52238
H     1.0     1.79973     0.89301    -0.52356
H     1.0    -0.47223    -0.00252     0.89965
H     1.0    -0.50800     0.07669    -0.87653
N     7.0     3.28785    -0.00000     1.66639
C     6.0     3.78246     0.00022     3.02597
C     6.0     5.30787     0.00017     3.02597
O     8.0     5.98722    -0.00002     2.00234
H     1.0     3.41197     0.89631     3.53531
H     1.0     3.41109    -0.89269     3.53683
H     1.0     3.97186     0.00237     0.91504
N     7.0     5.97787     0.00035     4.18645
C     6.0     7.42462     0.00009     4.18645
C     6.0     7.94612     0.00037     5.61994
O     8.0     7.21641     0.00075     6.60831
H     1.0     7.77658    -0.89610     3.66430
H     1.0     7.77776     0.89290     3.66265
H     1.0     5.50563    -0.00185     5.08610
N     7.0     9.26572     0.00019     5.85284
C     6.0     9.76033     0.00067     7.21242
C     6.0    11.28573     0.00034     7.21242
O     8.0    11.96509    -0.00024     6.18879
H     1.0     9.39000     0.89695     7.72152
H     1.0     9.38879    -0.89204     7.72351
H     1.0     9.94972     0.00224     5.10149
N     7.0    11.95573     0.00070     8.37289
C     6.0    13.40249     0.00018     8.37289
C     6.0    13.92398     0.00073     9.80639
O     8.0    13.19428     0.00151    10.79476
H     1.0    13.75428    -0.89621     7.85098
H     1.0    13.75579     0.89279     7.84887
H     1.0    11.48350    -0.00118     9.27255
N     7.0    15.24359     0.00037    10.03929
C     6.0    15.73819     0.00112    11.39887
C     6.0    17.26360     0.00052    11.39887
O     8.0    17.94295    -0.00046    10.37523
H     1.0    15.36803     0.89760    11.90774
H     1.0    15.36650    -0.89139    11.91018
H     1.0    15.92759     0.00211     9.28794
N     7.0    17.93360     0.00105    12.55934
C     6.0    19.38036     0.00027    12.55934
C     6.0    19.90185     0.00110    13.99284
O     8.0    19.17215     0.00226    14.98121
H     1.0    19.73199    -0.89632    12.03766
H     1.0    19.73382     0.89267    12.03508
H     1.0    17.46137    -0.00051    13.45900
N     7.0    21.22146     0.00056    14.22573
C     6.0    21.71606     0.00157    15.58531
C     6.0    23.24147     0.00069    15.58531
O     8.0    23.92082    -0.00067    14.56168
H     1.0    21.34606     0.89825    16.09395
H     1.0    21.34421    -0.89074    16.09686
H     1.0    21.90546     0.00198    13.47438
N     7.0    23.91147     0.00141    16.74579
C     6.0    25.35822     0.00036    16.74579
C     6.0    25.87972     0.00146    18.17928
O     8.0    25.15002     0.00302    19.16765
H     1.0    25.70969    -0.89643    16.22434
H     1.0    25.71185     0.89256    16.22130
H     1.0    23.43923     0.00016    17.64544
N     7.0    27.19932     0.00075    18.41218
C     6.0    27.69393     0.00202    19.77176
C     6.0    29.21934     0.00086    19.77176
O     8.0    29.89869    -0.00089    18.74813
H     1.0    27.32409     0.89890    20.28017
H     1.0    27.32191    -0.89009    20.28354
H     1.0    27.88333     0.00184    17.66083
N     7.0    29.88934     0.00176    20.93223
C     6.0    31.33609     0.00044    20.93224
C     6.0    31.85759     0.00183    22.36573
O     8.0    31.12788     0.00377    23.35410
H     1.0    31.68740    -0.89654    20.41102
H     1.0    31.68988     0.89245    20.40752
H     1.0    29.41710     0.00083    21.83189
N     7.0    33.17719     0.00093    22.59863
C     6.0    33.67180     0.00246    23.95821
C     6.0    35.19720     0.00103    23.95821
O     8.0    35.87656    -0.00110    22.93458
H     1.0    33.30212     0.89955    24.46638
H     1.0    33.29962    -0.88944    24.47022
H     1.0    33.86119     0.00171    21.84728
N     7.0    35.86720     0.00211    25.11868
C     6.0    37.31396     0.00053    25.11868
C     6.0    37.83545     0.00219    26.55218
O     8.0    37.10575     0.00453    27.54055
H     1.0    37.66510    -0.89665    24.59770
H     1.0    37.66791     0.89234    24.59373
H     1.0    35.39497     0.00150    26.01834
N     7.0    39.15506     0.00112    26.78507
C     6.0    39.64966     0.00291    28.14465
C     6.0    41.17507     0.00121    28.14466
O     8.0    41.85442    -0.00132    27.12102
H     1.0    39.28015     0.90019    28.65260
H     1.0    39.27732    -0.88879    28.65690
H     1.0    39.83906     0.00158    26.03372
N     7.0    41.84507     0.00246    29.30513
C     6.0    43.29182     0.00062    29.30513
C     6.0    43.81332     0.00256    30.73862
O     8.0    43.08362     0.00528    31.72699
H     1.0    43.64281    -0.89676    28.78438
H     1.0    43.64594     0.89223    28.77995
H     1.0    41.37284     0.00217    30.20478
N     7.0    45.13293     0.00131    30.97152
C     6.0    45.62753     0.00336    32.33110
C     6.0    47.15294     0.00138    32.33110
O     8.0    47.83229    -0.00154    31.30747
H     1.0    45.25818     0.90084    32.83881
H     1.0    45.25503    -0.88814    32.84357
H     1.0    45.81693     0.00145    30.22017
N     7.0    47.82294     0.00281    33.49157
C     6.0    49.26969     0.00071    33.49158
C     6.0    49.79119     0.00293    34.92507
O     8.0    49.06149     0.00603    35.91344
H     1.0    49.62051    -0.89687    32.97106
H     1.0    49.62396     0.89212    32.96616
H     1.0    47.35070     0.00284    34.39123
N     7.0    51.11079     0.00149    35.15797
C     6.0    51.60540     0.00381    36.51755
C     6.0    53.13081     0.00155    36.51755
O     8.0    53.81016    -0.00175    35.49392
H     1.0    51.23621     0.90149    37.02502
H     1.0    51.23273    -0.88749    37.03025
H     1.0    51.79480     0.00131    34.40662
N     7.0    53.80081     0.00316    37.67802
C     6.0    55.24756     0.00080    37.67802
C     6.0    55.76906     0.00329    39.11152
O     8.0    55.03936     0.00679    40.09988
H     1.0    55.59822    -0.89698    37.15774
H     1.0    55.60199     0.89201    37.15238
H     1.0    53.32857     0.00351    38.57768
N     7.0    57.08866     0.00168    39.34442
C     6.0    57.58327     0.00426    40.70399
C     6.0    59.10867     0.00172    40.70400
O     8.0    59.78802    -0.00197    39.68037
H     1.0    57.21424     0.90214    41.21124
H     1.0    57.21044    -0.88684    41.21693
H     1.0    57.77266     0.00118    38.59307
N     7.0    59.77868     0.00352    41.86447
C     6.0    61.22543     0.00089    41.86447
C     6.0    61.74692     0.00366    43.29796
O     8.0    61.01722     0.00754    44.28633
H     1.0    61.57592    -0.89709    41.34442
H     1.0    61.58002     0.89189    41.33860
H     1.0    59.30644     0.00418    42.76412
N     7.0    63.06653     0.00187    43.53086
C     6.0    63.56114     0.00471    44.89044
C     6.0    65.08654     0.00190    44.89044
O     8.0    65.76589    -0.00219    43.86682
H     1.0    63.19227     0.90279    45.39745
H     1.0    63.18815    -0.88619    45.40361
H     1.0    63.75053     0.00105    42.77951
N     7.0    65.75654     0.00387    46.05092
C     6.0    67.20329     0.00098    46.05092
C     6.0    67.72479     0.00402    47.48441
O     8.0    66.99509     0.00830    48.47278
H     1.0    67.55362    -0.89720    45.53110
H     1.0    67.55805     0.89178    45.52481
H     1.0    65.28431     0.00485    46.95057
N     7.0    69.04439     0.00205    47.71731
C     6.0    69.53900     0.00516    49.07689
C     6.0    71.06441     0.00207    49.07689
O     8.0    71.74376    -0.00240    48.05327
H     1.0    69.17030     0.90343    49.58367
H     1.0    69.16585    -0.88554    49.59028
H     1.0    69.72840     0.00092    46.96596
N     7.0    71.73441     0.00422    50.23736
C     6.0    73.18116     0.00107    50.23737
C     6.0    73.70266     0.00439    51.67086
O     8.0    72.97296     0.00905    52.65922
H     1.0    73.53133    -0.89731    49.71778
H     1.0    73.53608     0.89167    49.71103
H     1.0    71.26217     0.00552    51.13702
N     7.0    75.02226     0.00224    51.90376
C     6.0    75.51687     0.00561    53.26333
C     6.0    77.04228     0.00224    53.26334
O     8.0    77.72162    -0.00262    52.23971
H     1.0    75.14833     0.90408    53.76988
H     1.0    75.14356    -0.88489    53.77696
H     1.0    75.70627     0.00079    51.15241
N     7.0    77.71228     0.00457    54.42381
C     6.0    79.15903     0.00116    54.42381
C     6.0    79.68053     0.00476    55.85730
O     8.0    78.95083     0.00981    56.84567
H     1.0    79.50903    -0.89741    53.90446
H     1.0    79.51411     0.89156    53.89725
H     1.0    77.24004     0.00619    55.32346
N     7.0    81.00013     0.00243    56.09020
C     6.0    81.49474     0.00606    57.44978
C     6.0    83.02014     0.00241    57.44979
O     8.0    83.69949    -0.00283    56.42616
H     1.0    81.12636     0.90473    57.95609
H     1.0    81.12127    -0.88424    57.96364
H     1.0    81.68413     0.00065    55.33886
N     7.0    83.69015     0.00492    58.61026
C     6.0    85.13689     0.00125    58.61026
C     6.0    85.65839     0.00512    60.04375
O     8.0    84.92870     0.01056    61.03211
H     1.0    85.48674    -0.89752    58.09114
H     1.0    85.49214     0.89145    58.08346
H     1.0    83.21791     0.00686    59.50991
N     7.0    86.97800     0.00261    60.27665
C     6.0    87.47261     0.00651    61.63623
C     6.0    88.99801     0.00259    61.63623
O     8.0    89.67735    -0.00305    60.61261
H     1.0    87.10439     0.90538    62.14231
H     1.0    87.09897    -0.88359    62.15031
H     1.0    87.66200     0.00052    59.52530
N     7.0    89.66801     0.00527    62.79670
C     6.0    91.11476     0.00133    62.79671
C     6.0    91.63626     0.00549    64.23020
O     8.0    90.90657     0.01132    65.21856
H     1.0    91.46444    -0.89763    62.27782
H     1.0    91.47017     0.89134    62.26968
H     1.0    89.19578     0.00753    63.69636
N     7.0    92.95586     0.00280    64.46310
C     6.0    93.45047     0.00696    65.82267
C     6.0    94.97588     0.00276    65.82268
O     8.0    95.65522    -0.00327    64.79906
H     1.0    93.08243     0.90602    66.32852
H     1.0    93.07668    -0.88294    66.33699
H     1.0    93.63987     0.00039    63.71175
N     7.0    95.64588     0.00562    66.98315
C     6.0    97.09263     0.00142    66.98316
C     6.0    97.61413     0.00585    68.41664
O     8.0    96.88444     0.01207    69.40500
H     1.0    97.44214    -0.89774    66.46450
H     1.0    97.44819     0.89122    66.45590
H     1.0    95.17365     0.00820    67.88280
N     7.0    98.93373     0.00299    68.64955
C     6.0    99.42834     0.00741    70.00912
C     6.0   100.95374     0.00293    70.00913
O     8.0   101.63309    -0.00348    68.98551
H     1.0    99.06046     0.90667    70.51473
H     1.0    99.05438    -0.88229    70.52367
H     1.0    99.61773     0.00026    67.89820
N     7.0   101.62375     0.00598    71.16959
C     6.0   103.07049     0.00151    71.16961
C     6.0   103.59200     0.00622    72.60309
O     8.0   102.86230     0.01282    73.59145
H     1.0   103.41985    -0.89785    70.65118
H     1.0   103.42622     0.89111    70.64212
H     1.0   101.15152     0.00887    72.06925
N     7.0   104.91160     0.00317    72.83599
C     6.0   105.40621     0.00786    74.19556
C     6.0   106.93161     0.00310    74.19557
O     8.0   107.61095    -0.00370    73.17196
H     1.0   105.03849     0.90732    74.70095
H     1.0   105.03209    -0.88164    74.71034
H     1.0   105.59560     0.00013    72.08465
N     7.0   107.60162     0.00633    75.35604
C     6.0   109.04836     0.00160    75.35605
C     6.0   109.56986     0.00658    76.78954
O     8.0   108.84017     0.01358    77.77789
H     1.0   109.39755    -0.89796    74.83787
H     1.0   109.40425     0.89100    74.82833
H     1.0   107.12938     0.00955    76.25569
N     7.0   110.88947     0.00336    77.02244
C     6.0   111.38408     0.00831    78.38201
C     6.0   112.90948     0.00328    78.38202
O     8.0   113.58882    -0.00391    77.35841
H     1.0   111.01652     0.90796    78.88716
H     1.0   111.00980    -0.88099    78.89702
H     1.0   111.57347    -0.00001    76.27110
N     7.0   113.57948     0.00668    79.54249
C     6.0   115.02623     0.00169    79.54250
C     6.0   115.54773     0.00695    80.97598
O     8.0   114.81804     0.01433    81.96434
H     1.0   115.37525    -0.89807    79.02455
H     1.0   115.38228     0.89089    79.01455
H     1.0   113.10725     0.01022    80.44214
N     7.0   116.86733     0.00355    81.20889
C     6.0   117.36195     0.00875    82.56846
C     6.0   118.88735     0.00345    82.56847
O     8.0   119.56668    -0.00413    81.54486
H     1.0   116.99455     0.90861    83.07337
H     1.0   116.98750    -0.88034    83.08370
H     1.0   117.55133    -0.00014    80.45754
N     7.0   119.55735     0.00703    83.72893
C     6.0   121.00410     0.00178    83.72895
C     6.0   121.52560     0.00732    85.16243
O     8.0   120.79591     0.01509    86.15078
H     1.0   121.35296    -0.89818    83.21123
H     1.0   121.36031     0.89077    83.20077
H     1.0   119.08512     0.01089    84.62858
N     7.0   122.84520     0.00373    85.39534
C     6.0   123.33982     0.00920    86.75490
C     6.0   124.86521     0.00362    86.75492
O     8.0   125.54455    -0.00435    85.73131
H     1.0   122.97258     0.90926    87.25958
H     1.0   122.96521    -0.87969    87.27037
H     1.0   123.52920    -0.00027    84.64399
N     7.0   125.53522     0.00738    87.91538
C     6.0   126.98196     0.00187    87.91540
C     6.0   127.50347     0.00768    89.34888
O     8.0   126.77378     0.01584    90.33723
H     1.0   127.33066    -0.89828    87.39791
H     1.0   127.33834     0.89066    87.38698
H     1.0   125.06299     0.01156    88.81503
N     7.0   128.82307     0.00392    89.58178
C     6.0   129.31768     0.00965    90.94135
C     6.0   130.84308     0.00379    90.94136
O     8.0   131.52242    -0.00456    89.91776
H     1.0   128.95061     0.90990    91.44580
H     1.0   128.94292    -0.87904    91.45705
H     1.0   129.50707    -0.00040    88.83044
N     7.0   131.51309     0.00773    92.10183
C     6.0   132.95983     0.00196    92.10184
C     6.0   133.48134     0.00805    93.53532
O     8.0   132.75165     0.01660    94.52367
H     1.0   133.30836    -0.89839    91.58459
H     1.0   133.31636     0.89055    91.57320
H     1.0   131.04086     0.01223    93.00148
N     7.0   134.80093     0.00411    93.76823
C     6.0   135.29555     0.01010    95.12779
C     6.0   136.82095     0.00397    95.12781
O     8.0   137.50028    -0.00478    94.10421
H     1.0   134.92865     0.91055    95.63201
H     1.0   134.92062    -0.87839    95.64373
H     1.0   135.48493    -0.00054    93.01689
N     7.0   137.49096     0.00809    96.28827
C     6.0   138.93770     0.00205    96.28829
C     6.0   139.45920     0.00841    97.72177
O     8.0   138.72952     0.01735    98.71011
H     1.0   139.28607    -0.89850    95.77127
H     1.0   139.29439     0.89044    95.75942
H     1.0   137.01873     0.01290    97.18792
N     7.0   140.77880     0.00429    97.95468
C     6.0   141.27342     0.01055    99.31424
C     6.0   142.79881     0.00414    99.31426
O     8.0   143.47815    -0.00500    98.29065
H     1.0   140.90668     0.91120    99.81822
H     1.0   140.89833    -0.87774    99.83040
H     1.0   141.46280    -0.00067    97.20334
N     7.0   143.46882     0.00844   100.47472
C     6.0   144.91556     0.00214   100.47474
C     6.0   145.43707     0.00878   101.90822
O     8.0   144.70739     0.01810   102.89656
H     1.0   145.26377    -0.89861    99.95795
H     1.0   145.27242     0.89032    99.94564
H     1.0   142.99659     0.01357   101.37437
N     7.0   146.75667     0.00448   102.14113
C     6.0   147.25129     0.01100   103.50069
C     6.0   148.77668     0.00431   103.50071
O     8.0   149.45601    -0.00521   102.47710
H     1.0   146.88471     0.91184   104.00443
H     1.0   146.87604    -0.87709   104.01708
H     1.0   147.44066    -0.00080   101.38979
N     7.0   149.44669     0.00879   104.66117
C     6.0   150.89343     0.00222   104.66119
C     6.0   151.41494     0.00915   106.09466
O     8.0   150.68526     0.01886   107.08300
H     1.0   151.24147    -0.89872   104.14463
H     1.0   151.25045     0.89021   104.13186
H     1.0   148.97446     0.01424   105.56081
N     7.0   152.73454     0.00467   106.32757
C     6.0   153.22916     0.01145   107.68713
C     6.0   154.75455     0.00448   107.68715
O     8.0   155.43388    -0.00543   106.66356
H     1.0   152.86274     0.91249   108.19065
H     1.0   152.85375    -0.87644   108.20375
H     1.0   153.41853    -0.00093   105.57624
N     7.0   155.42456     0.00914   108.84761
C     6.0   156.87130     0.00231   108.84764
C     6.0   157.39281     0.00951   110.28111
O     8.0   156.66313     0.01961   111.26945
H     1.0   157.21918    -0.89883   108.33132
H     1.0   157.22847     0.89010   108.31807
H     1.0   154.95233     0.01491   109.74726
N     7.0   158.71240     0.00485   110.51402
C     6.0   159.20702     0.01190   111.87358
C     6.0   160.73242     0.00465   111.87360
O     8.0   161.41174    -0.00564   110.85001
H     1.0   158.84077     0.91314   112.37686
H     1.0   158.83145    -0.87578   112.39043
H     1.0   159.39640    -0.00106   109.76269
N     7.0   161.40243     0.00949   113.03406
C     6.0   162.84916     0.00240   113.03408
C     6.0   163.37068     0.00988   114.46756
O     8.0   162.64100     0.02037   115.45589
H     1.0   163.19688    -0.89893   112.51800
H     1.0   163.20650     0.88998   112.50429
H     1.0   160.93020     0.01558   113.93370
N     7.0   164.69027     0.00504   114.70047
C     6.0   165.18489     0.01235   116.06002
C     6.0   166.71028     0.00483   116.06005
O     8.0   167.38961    -0.00586   115.03646
H     1.0   164.81880     0.91378   116.56307
H     1.0   164.80916    -0.87513   116.57711
H     1.0   165.37426    -0.00120   113.94913
N     7.0   167.38029     0.00984   117.22051
C     6.0   168.82703     0.00249   117.22053
C     6.0   169.34854     0.01024   118.65400
O     8.0   168.61887     0.02112   119.64233
H     1.0   169.17458    -0.89904   116.70468
H     1.0   169.18453     0.88987   116.69051
H     1.0   166.90807     0.01625   118.12015
N     7.0   170.66814     0.00523   118.88692
C     6.0   171.16276     0.01280   120.24647
C     6.0   172.68815     0.00500   120.24650
O     8.0   173.36747    -0.00608   119.22291
H     1.0   170.79684     0.91443   120.74928
H     1.0   170.78687    -0.87448   120.76378
H     1.0   171.35213    -0.00133   118.13558
N     7.0   173.35816     0.01019   121.40695
C     6.0   174.80490     0.00258   121.40698
C     6.0   175.32641     0.01061   122.84045
O     8.0   174.59674     0.02188   123.82878
H     1.0   175.15229    -0.89915   120.89136
H     1.0   175.16256     0.88976   120.87673
H     1.0   172.88594     0.01692   122.30659
N     7.0   176.64600     0.00541   123.07336
C     6.0   177.14063     0.01325   124.43291
C     6.0   178.66602     0.00517   124.43295
O     8.0   179.34534    -0.00629   123.40936
H     1.0   176.77487     0.91507   124.93549
H     1.0   176.76457    -0.87383   124.95046
H     1.0   177.32999    -0.00146   122.32203
N     7.0   179.33603     0.01055   125.59340
C     6.0   180.78276     0.00267   125.59343
C     6.0   181.30428     0.01097   127.02689
O     8.0   180.57461     0.02263   128.01522
H     1.0   181.12999    -0.89926   125.07804
H     1.0   181.14058     0.88964   125.06295
H     1.0   178.86381     0.01759   126.49303
N     7.0   182.62387     0.00560   127.25981
C     6.0   183.11850     0.01370   128.61936
C     6.0   184.64388     0.00534   128.61939
O     8.0   185.32320    -0.00651   127.59581
H     1.0   182.75290     0.91572   129.12171
H     1.0   182.74228    -0.87318   129.13713
H     1.0   183.30786    -0.00159   126.50848
N     7.0   185.31390     0.01090   129.77984
C     6.0   186.76063     0.00276   129.77988
C     6.0   187.28215     0.01134   131.21334
O     8.0   186.55248     0.02339   132.20166
H     1.0   187.10769    -0.89936   129.26473
H     1.0   187.11861     0.88953   129.24917
H     1.0   184.84168     0.01826   130.67948
N     7.0   188.60174     0.00579   131.44626
C     6.0   189.09637     0.01415   132.80581
C     6.0   190.62175     0.00552   132.80584
O     8.0   191.30107    -0.00672   131.78226
H     1.0   188.73093     0.91636   133.30792
H     1.0   188.71999    -0.87253   133.32381
H     1.0   189.28573    -0.00173   130.69493
N     7.0   191.29177     0.01125   133.96629
C     6.0   192.73849     0.00285   133.96633
C     6.0   193.26002     0.01171   135.39979
O     8.0   192.53035     0.02414   136.38810
H     1.0   193.08539    -0.89947   133.45141
H     1.0   193.09664     0.88942   133.43538
H     1.0   190.81955     0.01893   134.86592
N     7.0   194.57960     0.00597   135.63271
C     6.0   195.07423     0.01459   136.99225
C     6.0   196.59962     0.00569   136.99229
O     8.0   197.27893    -0.00694   135.96871
H     1.0   194.70896     0.91701   137.49413
H     1.0   194.69770    -0.87188   137.51048
H     1.0   195.26359    -0.00186   134.88138
N     7.0   197.26963     0.01160   138.15274
C     6.0   198.71636     0.00294   138.15278
C     6.0   199.23788     0.01207   139.58623
O     8.0   198.50822     0.02489   140.57455
H     1.0   199.06310    -0.89958   137.63809
H     1.0   199.07467     0.88930   137.62160
H     1.0   196.79742     0.01960   139.05237
N     7.0   200.55747     0.00616   139.81915
C     6.0   201.05210     0.01504   141.17870
C     6.0   202.57748     0.00586   141.17874
O     8.0   203.25680    -0.00716   140.15516
H     1.0   200.68700     0.91766   141.68034
H     1.0   200.67540    -0.87122   141.69716
H     1.0   201.24146    -0.00199   139.06783
N     7.0   203.24750     0.01195   142.33918
C     6.0   204.69423     0.00303   142.33922
C     6.0   205.21575     0.01244   143.77268
O     8.0   204.48609     0.02565   144.76099
H     1.0   205.04080    -0.89969   141.82477
H     1.0   205.05269     0.88919   141.80782
H     1.0   202.77529     0.02027   143.23881
N     7.0   206.53534     0.00635   144.00560
C     6.0   207.02997     0.01549   145.36514
C     6.0   208.55535     0.00603   145.36518
O     8.0   209.23466    -0.00737   144.34161
H     1.0   206.66503     0.91830   145.86655
H     1.0   206.65311    -0.87057   145.88383
H     1.0   207.21932    -0.00212   143.25428
N     7.0   209.22537     0.01230   146.52563
C     6.0   210.67209     0.00311   146.52567
C     6.0   211.19362     0.01280   147.95912
O     8.0   210.46396     0.02640   148.94743
H     1.0   211.01850    -0.89979   146.01145
H     1.0   211.03072     0.88908   145.99404
H     1.0   208.75315     0.02094   147.42526
N     7.0   212.51321     0.00653   148.19205
C     6.0   213.00784     0.01594   149.55159
C     6.0   214.53322     0.00621   149.55163
O     8.0   215.21252    -0.00759   148.52806
H     1.0   212.64306     0.91895   150.05276
H     1.0   212.63082    -0.86992   150.07051
H     1.0   213.19719    -0.00225   147.44073
N     7.0   215.20324     0.01266   150.71208
C     6.0   216.64996     0.00320   150.71212
C     6.0   217.17149     0.01317   152.14557
O     8.0   216.44183     0.02716   153.13388
H     1.0   216.99620    -0.89990   150.19814
H     1.0   217.00875     0.88896   150.18026
H     1.0   214.73102     0.02161   151.61170
N     7.0   218.49107     0.00672   152.37850
C     6.0   218.98571     0.01639   153.73803
C     6.0   220.51108     0.00638   153.73808
O     8.0   221.19039    -0.00781   152.71451
H     1.0   218.62109     0.91959   154.23898
H     1.0   218.60853    -0.86927   154.25718
H     1.0   219.17505    -0.00239   151.62718
N     7.0   221.18111     0.01301   154.89852
C     6.0   222.62783     0.00329   154.89857
C     6.0   223.14936     0.01354   156.33202
O     8.0   222.41970     0.02791   157.32032
H     1.0   222.97391    -0.90001   154.38482
H     1.0   222.98678     0.88885   154.36648
H     1.0   220.70889     0.02228   155.79814
N     7.0   224.46894     0.00691   156.56495
C     6.0   224.96358     0.01684   157.92448
C     6.0   226.48895     0.00655   157.92453
O     8.0   227.16825    -0.00802   156.90097
H     1.0   224.59913     0.92024   158.42519
H     1.0   224.58624    -0.86861   158.44386
H     1.0   225.15292    -0.00252   155.81363
N     7.0   227.15897     0.01336   159.08497
C     6.0   228.60569     0.00338   159.08502
C     6.0   229.12722     0.01390   160.51846
O     8.0   228.39757     0.02867   161.50676
H     1.0   228.95161    -0.90011   158.57150
H     1.0   228.96480     0.88873   158.55270
H     1.0   226.68676     0.02295   159.98459
N     7.0   230.44681     0.00709   160.75139
C     6.0   230.94145     0.01729   162.11092
C     6.0   232.46682     0.00672   162.11098
O     8.0   233.14612    -0.00824   161.08742
H     1.0   230.57716     0.92088   162.61140
H     1.0   230.56394    -0.86796   162.63053
H     1.0   231.13078    -0.00265   160.00008
N     7.0   233.13684     0.01371   163.27141
C     6.0   234.58356     0.00347   163.27147
C     6.0   235.10509     0.01427   164.70491
O     8.0   234.37544     0.02942   165.69320
H     1.0   234.92931    -0.90022   162.75819
H     1.0   234.94283     0.88862   162.73892
H     1.0   232.66463     0.02362   164.17103
N     7.0   236.42467     0.00728   164.93784
C     6.0   236.91932     0.01774   166.29737
C     6.0   238.44468     0.00690   166.29742
O     8.0   239.12398    -0.00845   165.27387
H     1.0   236.55519     0.92153   166.79761
H     1.0   236.54165    -0.86731   166.81721
H     1.0   237.10865    -0.00278   164.18653
N     7.0   239.11471     0.01406   167.45786
C     6.0   240.56142     0.00356   167.45792
C     6.0   241.08296     0.01463   168.89136
O     8.0   240.35331     0.03017   169.87964
H     1.0   240.90701    -0.90033   166.94487
H     1.0   240.92086     0.88851   166.92514
H     1.0   238.64250     0.02429   168.35747
N     7.0   242.40254     0.00747   169.12429
C     6.0   242.89718     0.01819   170.48381
C     6.0   244.42255     0.00707   170.48387
O     8.0   245.10185    -0.00867   169.46032
H     1.0   242.53322     0.92217   170.98382
H     1.0   242.51936    -0.86666   171.00388
H     1.0   243.08651    -0.00291   168.37298
N     7.0   245.09258     0.01441   171.64431
C     6.0   246.53929     0.00365   171.64436
C     6.0   247.06083     0.01500   173.07780
O     8.0   246.33118     0.03093   174.06609
H     1.0   246.88472    -0.90043   171.13155
H     1.0   246.89888     0.88839   171.11136
H     1.0   244.62037     0.02496   172.54392
N     7.0   248.38041     0.00765   173.31074
C     6.0   248.87505     0.01864   174.67026
C     6.0   250.40042     0.00724   174.67032
O     8.0   251.07971    -0.00889   173.64677
H     1.0   248.51126     0.92282   175.17003
H     1.0   248.49707    -0.86600   175.19056
H     1.0   249.06438    -0.00305   172.55943
N     7.0   251.07045     0.01476   175.83075
C     6.0   252.51716     0.00374   175.83081
C     6.0   253.03870     0.01536   177.26425
O     8.0   252.30905     0.03168   178.25253
H     1.0   252.86242    -0.90054   175.31824
H     1.0   252.87691     0.88828   175.29758
H     1.0   250.59824     0.02563   176.73036
N     7.0   254.35827     0.00784   177.49718
C     6.0   254.85292     0.01909   178.85670
C     6.0   256.37828     0.00741   178.85677
O     8.0   257.05757    -0.00910   177.83323
H     1.0   254.48929     0.92346   179.35624
H     1.0   254.47478    -0.86535   179.37723
H     1.0   255.04224    -0.00318   176.74588
N     7.0   257.04831     0.01512   180.01720
C     6.0   258.49502     0.00383   180.01726
C     6.0   259.01656     0.01573   181.45069
O     8.0   258.28693     0.03244   182.43897
H     1.0   258.84012    -0.90065   179.50492
H     1.0   258.85494     0.88816   179.48380
H     1.0   256.57611     0.02630   180.91680
N     7.0   260.33614     0.00803   181.68363
C     6.0   260.83079     0.01954   183.04315
C     6.0   262.35615     0.00759   183.04322
O     8.0   263.03544    -0.00932   182.01968
H     1.0   260.46732     0.92411   183.54245
H     1.0   260.45249    -0.86470   183.56390
H     1.0   261.02011    -0.00331   180.93233
N     7.0   263.02618     0.01547   184.20364
C     6.0   264.47289     0.00392   184.20371
C     6.0   264.99443     0.01610   185.63714
O     8.0   264.26480     0.03319   186.62541
H     1.0   264.81782    -0.90075   183.69160
H     1.0   264.83296     0.88805   183.67002
H     1.0   262.55398     0.02697   185.10325
N     7.0   266.31401     0.00821   185.87008
C     6.0   266.80866     0.01999   187.22959
C     6.0   268.33402     0.00776   187.22966
O     8.0   269.01330    -0.00953   186.20613
H     1.0   266.44536     0.92475   187.72866
H     1.0   266.43019    -0.86405   187.75058
H     1.0   266.99797    -0.00344   185.11879
O     8.0   268.93537     0.01694   188.43941
H     1.0   268.34707     0.03192   189.32585
 $END
!TRAVIS-CI SKIP
!Only runs one SCF iteration


