!   64 MeOH MD simulation, testing 'force points' coarse graining
!   test case from Lyuda collected April 2009.
!
!           checking the results requires looking at the .trj file!!!
!
!   The FRCPNT option adds coarse graining information to the
!   gradient part of the .trj trajectory file.  The information is
!   collected for COM, C, and O positions (the 9 number are
!   the "coordinates and forces" according to Lyuda).
!   The very first particle's gradient on the very first step should say:
!     gradient info (not used by restarts)...
!  FRAGMENT #     1  MEOH
!      EFCENT   -1.9322097822   -0.1285970299    3.6096037941
!       FORCE    0.0000863831   -0.0002319202   -0.0001005355
!        TORQ    0.0002776020   -0.0001221173   -0.0002875234
!   1   1   -1.9322097821   -0.1285970299    3.6096037941    0.0010386982 \
!  0.0063650429    0.0029856650    0.0158946795    0.0298667436   -0.0023786226
!   1   2   -3.1554744867    0.4710622404    3.4174609768   -0.0038738915 \
! -0.0067299811   -0.0060274313    0.0064195629    0.0059560364   -0.0073185832
!   1   3   -0.7882527641   -0.7617030797    3.7199193373    0.0029215765 \
!  0.0001330180    0.0029412308   -0.0153602112   -0.0264578120   -0.0031076342
!
!    this run takes 97 seconds on 2.66 GHz Cloverton ( 6 Oct 2015)
!
 $CONTRL RUNTYP=md coord=fragonly $end
 $SYSTEM MWORDS=3 $END

 $statpt opttol=1.0e-4 nstep=150  $end
 $md batht=300.0  delr=2.0d-02
     dt=5d-16 mdint=vverl jevery=1 kevery=1
     nsteps=10 mbt=.t. mbr=.t. qrand=.false.
     pbcout=.t. prod=.t.
     read=.f. nvtnh=2  
 $end

 $efrag
iscrelec=1 iscrpol=1 iscrdisp=1 >
swr1=6.5 swr2=8.13 xbox=16.26 ybox=16.26 zbox=16.26 > 
FRCPNT 
 FRAGNAME=MEOH  
 C1               -1.6698053089   0.2492754206   1.8084425991
 O2               -0.4171254295  -0.4030759404   1.9684966823
 H3               -2.1891079902  -0.2574631538   0.9966640538
 FRAGNAME=MEOH  
 C1               -0.0020611477   0.1874374987   5.3928400753
 O2                0.3400545747   1.0291366197   4.2997317044
 H3               -1.0138410539  -0.1714709036   5.2113742544
 FRAGNAME=MEOH  
 C1               -0.4576012259  -1.5132553712   8.6380644348
 O2               -0.3459276178  -0.4770814647   9.6046352439
 H3               -0.9884838943  -2.3353701174   9.1152799006
 FRAGNAME=MEOH  
 C1               -1.3797418499  -1.9833628595  12.4118925742
 O2                0.0074182772  -1.9298368698  12.1064286015
 H3               -1.4849607710  -2.6081045631  13.2973700987
 FRAGNAME=MEOH  
 C1               -0.2354828624   3.9244108340   2.6220945818
 O2                1.0135142186   4.1143840457   3.2734799968
 H3               -0.7085891755   3.0625950244   3.0899488229
 FRAGNAME=MEOH  
 C1               -0.9720425875   3.7705446115   5.9788080733
 O2                0.4243776983   3.7509829142   6.2434100646
 H3               -1.4750938778   3.8612809411   6.9401352714
 FRAGNAME=MEOH  
 C1                0.1339866778   2.9689684765   9.5135707197
 O2                0.8316483527   2.0937052961   8.6374605435
 H3                0.1452640518   2.5057367570  10.4988284824
 FRAGNAME=MEOH  
 C1               -0.1192126340   2.9653321292  13.5584277574
 O2                1.1001767209   3.3640515936  12.9464646227
 H3               -0.0390626139   1.8979740021  13.7578425685
 FRAGNAME=MEOH  
 C1                0.6337045525   7.0748017951   1.0996386665
 O2                1.7963299406   6.6518094573   1.7994716305
 H3                0.4034028751   6.2994595350   0.3707702412
 FRAGNAME=MEOH  
 C1                0.3525002496   8.4089202332   4.5175590278
 O2                0.9390205635   9.1545078482   3.4590319767
 H3               -0.6006667265   8.0328165349   4.1495068739
 FRAGNAME=MEOH  
 C1               -1.7350376015   8.3146858676  10.0160059125
 O2               -0.5866091064   7.4844479651   9.9055364369
 H3               -2.5762106445   7.6625012438  10.2451931556
 FRAGNAME=MEOH  
 C1               -0.7548161542   6.5430318672  12.9360896355
 O2                0.5652563323   6.2629150366  12.4896261094
 H3               -0.8070309391   6.2388345899  13.9802071082
 FRAGNAME=MEOH  
 C1               -0.9016127837  12.1271659103   2.3516219546
 O2               -0.0792649787  13.1029906970   2.9776383773
 H3               -0.6403469450  11.1651210110   2.7894043632
 FRAGNAME=MEOH  
 C1               -1.5422614083  12.3912386403   6.0534883150
 O2               -0.2524921703  12.9812548590   5.9598792201
 H3               -1.7868415854  12.3314645689   7.1127575261
 FRAGNAME=MEOH  
 C1                0.4370951123  10.9006945658   8.6611177033
 O2                1.1237952944   9.8424066226   9.3159886658
 H3                0.0494110443  10.4964730809   7.7274423214
 FRAGNAME=MEOH  
 C1                0.4677929421  10.7587932761  12.7402804316
 O2                1.0981554581  11.5889958280  11.7739506175
 H3                0.8641038367   9.7542654856  12.6013370727
 FRAGNAME=MEOH  
 C1                3.2993314031   0.0989486843   1.5522173964
 O2                3.9383229722   1.2433223456   2.1022039290
 H3                3.3519180954  -0.6855173705   2.3054048317
 FRAGNAME=MEOH  
 C1                3.8579305711   0.8025745256   5.5048628647
 O2                3.0786134234   1.7595036116   4.7996409167
 H3                3.5227669527   0.8227763520   6.5405756141
 FRAGNAME=MEOH  
 C1                2.9350888706  -0.8390700123  10.3687043628
 O2                4.2815677133  -0.6311177257  10.7738426860
 H3                2.9219346900  -0.7977536225   9.2807872760
 FRAGNAME=MEOH  
 C1                2.6676249058   0.1997094256  13.8295743525
 O2                3.9843636492  -0.3332375803  13.7790465483
 H3                1.9917394811  -0.5970058919  13.5231967103
 FRAGNAME=MEOH  
 C1                2.6071235050   3.8599526059  -0.2824540601
 O2                3.8702418312   3.5492177928   0.2905751347
 H3                2.4091520312   3.1043129933  -1.0409128499
 FRAGNAME=MEOH  
 C1                4.9701543118   4.5110559150   3.6422283233
 O2                4.6345550318   5.2275176843   2.4613633248
 H3                5.5286713742   3.6301396228   3.3299962922
 FRAGNAME=MEOH  
 C1                3.7202129141   3.7309029465  10.1980767484
 O2                4.3271650791   4.8814404656  10.7710156413
 H3                4.4871220980   2.9595944969  10.1493197656
 FRAGNAME=MEOH  
 C1                4.9701297103   3.0471493971  13.3411657174
 O2                5.3300738823   2.1755382121  14.4047072650
 H3                5.2971412089   2.5717267263  12.4178670506
 FRAGNAME=MEOH  
 C1                5.6265114154   8.1342641979   1.1482291709
 O2                5.3777710257   9.2457461823   1.9985952716
 H3                6.1333822945   7.3821171398   1.7505582994
 FRAGNAME=MEOH  
 C1                3.8550291815   7.6271713823   5.2466834468
 O2                3.6805414385   7.6894049098   3.8374043744
 H3                3.2193901091   6.8208640712   5.6090025795
 FRAGNAME=MEOH  
 C1                2.5768327180   6.9103567563   8.7082607268
 O2                2.4120264499   7.0881817655  10.1088333412
 H3                2.1018365938   5.9649804002   8.4511889634
 FRAGNAME=MEOH  
 C1                3.5713919511   7.7381031812  13.8399021516
 O2                3.9331382620   9.1117247017  13.8917674882
 H3                2.6093552962   7.6830840416  13.3330471101
 FRAGNAME=MEOH  
 C1                2.4487296244  11.0659110141   0.6232857086
 O2                3.7618626448  11.4636772399   0.9945675268
 H3                2.0810396412  10.4121154206   1.4124619008
 FRAGNAME=MEOH  
 C1                2.9254783375  12.0842265772   4.3992918143
 O2                3.4234957544  10.8105471467   4.0118568532
 H3                2.4171996732  11.9487236858   5.3525679705
 FRAGNAME=MEOH  
 C1                4.0787070770  10.8593731834  10.4071839789
 O2                3.5529319635   9.6966747197  11.0333463387
 H3                3.8661501403  10.7693899428   9.3431509769
 FRAGNAME=MEOH  
 C1                3.3019556193  12.7498306869  13.8127134291
 O2                4.2234941757  13.1171741838  14.8306583847
 H3                3.1757276816  11.6701671936  13.8746562502
 FRAGNAME=MEOH  
 C1                6.8046679583   0.0417584862   2.2047077618
 O2                8.1405243840  -0.4350065676   2.1121378875
 H3                6.2651871300  -0.3599858285   1.3485502963
 FRAGNAME=MEOH  
 C1                8.3982102740  -1.0505547735   5.4160137545
 O2                8.1336583908   0.2957154244   5.0445903525
 H3                7.6570066625  -1.6692265282   4.9127184830
 FRAGNAME=MEOH  
 C1                6.9331728007   0.3818871769   8.6581248268
 O2                8.2783040304   0.3643031923   9.1171447248
 H3                6.5974515654  -0.6532188577   8.6222024998
 FRAGNAME=MEOH  
 C1                7.3532203136  -1.1809965047  11.7473968112
 O2                8.7728625248  -1.1980694412  11.6787601207
 H3                7.0747621186  -1.6896343643  12.6689130756
 FRAGNAME=MEOH  
 C1                7.3057240340   4.2345515881   0.9562397623
 O2                7.8757633972   4.7111425964   2.1679751392
 H3                6.5478910896   3.5021351133   1.2295509401
 FRAGNAME=MEOH  
 C1                8.0779436216   3.4763776895   5.7883017005
 O2                9.2096299398   2.7984878965   6.3175823389
 H3                8.1104261919   3.3502567864   4.7073382114
 FRAGNAME=MEOH  
 C1                7.4393481887   3.9416795790   9.5152280594
 O2                8.6931498170   3.3256884481   9.2526963624
 H3                6.8341935398   3.8226699652   8.6179721166
 FRAGNAME=MEOH  
 C1                8.7098955075   3.1393608076  12.7652972828
 O2                9.7410916325   3.6199617339  11.9132152504
 H3                8.4429962913   2.1455004283  12.4096991684
 FRAGNAME=MEOH  
 C1                9.4689516701   7.8326191884   0.5845059963
 O2                9.8598669782   6.7264628501   1.3869957878
 H3                8.8909914025   7.4320357623  -0.2467211160
 FRAGNAME=MEOH  
 C1                7.9813982532   8.0515202412   4.1256595311
 O2                8.8563309114   9.0574794203   3.6327848393
 H3                8.1304415258   7.1701265840   3.5040688393
 FRAGNAME=MEOH  
 C1                6.4779353598   8.2283802466  10.1328870967
 O2                7.7618983149   7.6334716645   9.9990611016
 H3                5.7894390483   7.4345327154  10.4178828693
 FRAGNAME=MEOH  
 C1                7.5839687746   6.6086983593  12.9680892070
 O2                8.9447285609   6.5615233822  12.5600526720
 H3                7.5472907196   6.2380145979  13.9911688391
 FRAGNAME=MEOH  
 C1                7.2823277394  12.3085522269   1.5914569031
 O2                8.3133214393  12.9060246772   2.3663537673
 H3                7.3455525091  11.2340239973   1.7552719711
 FRAGNAME=MEOH  
 C1                6.6377514366  11.4190423863   4.9613561149
 O2                8.0435809191  11.6285492139   4.9730541337
 H3                6.3970128588  10.8375220967   5.8497944944
 FRAGNAME=MEOH  
 C1                8.4658379505  11.0850977622   8.4649022437
 O2                9.2103942935  10.0568963830   9.1042959130
 H3                7.7328755371  10.5947665315   7.8263217485
 FRAGNAME=MEOH  
 C1                8.6487177845  11.5082223123  12.0876433380
 O2                9.5937641911  12.2230033711  11.3025561992
 H3                8.8865949454  10.4507853769  11.9842738650
 FRAGNAME=MEOH  
 C1               11.1823287964  -1.3379331938   2.3036628167
 O2               11.0029603785  -0.0923579865   2.9645378894
 H3               10.6743030962  -2.0908354712   2.9040724375
 FRAGNAME=MEOH  
 C1               12.0889988089  -0.5780571087   6.5444153034
 O2               12.6129950955   0.1232504376   5.4246018790
 H3               12.8115252942  -0.4702834901   7.3517467033
 FRAGNAME=MEOH  
 C1               12.4390824989   0.6999355434  10.3075392879
 O2               11.6851908968  -0.4150141501  10.7646181888
 H3               12.0652210318   0.9497094257   9.3159323721
 FRAGNAME=MEOH  
 C1               11.0869733923   0.7946085532  13.7367939935
 O2               12.3479024105   0.1385265254  13.7377278702
 H3               10.3631937981   0.0886981060  13.3327182535
 FRAGNAME=MEOH  
 C1               10.5934843216   2.8726105596   1.3647455400
 O2               11.9121506382   2.3681049325   1.5290005427
 H3               10.0818552699   2.2026843476   0.6756314361
 FRAGNAME=MEOH  
 C1               11.9624353465   3.7297967443   4.6652280839
 O2               12.6656567560   4.2820185366   3.5602768498
 H3               12.3251406963   2.7113418122   4.7942166287
 FRAGNAME=MEOH  
 C1               12.6616585596   4.6544341416  10.8502497651
 O2               12.0703700783   5.5388303035  11.7929097510
 H3               13.1908109907   3.8922865512  11.4199623411
 FRAGNAME=MEOH  
 C1               12.7927739246   3.7704813759  14.9135576417
 O2               13.3589361245   2.5054858065  15.2292046931
 H3               13.1898134897   4.0614924649  13.9424161515
 FRAGNAME=MEOH  
 C1               13.2727132424   7.6455603419   0.7533936581
 O2               12.9130399208   8.7960296159   1.5066811461
 H3               13.6191268103   6.8972834175   1.4643950285
 FRAGNAME=MEOH  
 C1               11.3333926177   7.2523890095   5.0642605474
 O2               11.6686441522   7.1150706040   3.6898019076
 H3               10.7013788006   6.4041610647   5.3221588857
 FRAGNAME=MEOH  
 C1               10.7213380959   6.9876610362   8.7000986311
 O2               10.7604782511   7.4821731642  10.0321317733
 H3               10.2593923622   6.0026103679   8.7416315597
 FRAGNAME=MEOH  
 C1               12.1224149599   8.3607541811  13.3043583143
 O2               12.1444418300   9.7779082925  13.4119479512
 H3               12.5180402116   8.1118084408  12.3210219818
 FRAGNAME=MEOH  
 C1               10.6483749515  11.5514850544   0.6160283280
 O2               11.7297975960  10.9883571905  -0.1145868656
 H3               10.0291137765  10.7223009523   0.9542782154
 FRAGNAME=MEOH  
 C1               12.0143230502  10.6646440272   4.1415318177
 O2               13.1562275907   9.8270425668   4.2634510624
 H3               11.6231845467  10.8147823700   5.1464760018
 FRAGNAME=MEOH  
 C1               12.5787202032  11.3687247396  10.1350077529
 O2               11.7878773846  10.2701003070  10.5685726046
 H3               12.6497043150  11.2992300679   9.0507681988
 FRAGNAME=MEOH  
 C1               11.3305641560  13.2829367666  13.7151066489
 O2               12.0536679184  13.6385570535  14.8860215256
 H3               10.9552063688  12.2726394687  13.8695396946
 $end

 $MEOH
EFP INFO FOR FRAGNAME SCFTYP=RHF     ... GENERATED WITH BASIS SET=XXX
 COORDINATES (BOHR)
C1        -1.3756106412   0.0241247560   0.0000000000  12.0000000  6.0
O2         1.3065425052  -0.1207357883   0.0000000000  15.9949100  8.0
H3        -2.0790122736  -1.9094009621   0.0000000000   1.0078250  1.0
H4        -2.1082390204   0.9798751196   1.6819676229   1.0078250  1.0
H5        -2.1082390204   0.9798751196  -1.6819676229   1.0078250  1.0
H6         1.9388787124   1.5785654611   0.0000000000   1.0078250  1.0
BO21      -0.0345340680  -0.0483055162   0.0000000000   0.0000000  0.0
BO31      -1.7273114574  -0.9426381031   0.0000000000   0.0000000  0.0
BO41      -1.7419248308   0.5019999378   0.8409838115   0.0000000  0.0
BO51      -1.7419248308   0.5019999378  -0.8409838115   0.0000000  0.0
BO62       1.6227106088   0.7289148364   0.0000000000   0.0000000  0.0
 STOP
FORCE POINT
COM        0.00           0.00           0.00 
C1        -1.3756106412   0.0241247560   0.0000000000  
O2         1.3065425052  -0.1207357883   0.0000000000  
STOP
 MONOPOLES
C1        -4.7423116654   6.00000
O2        -8.2217888573   8.00000
H3        -0.6367853794   1.00000
H4        -0.6560313529   1.00000
H5        -0.6560313528   1.00000
H6        -0.6613442624   1.00000
BO21      -0.3847312269   0.00000
BO31      -0.6029874110   0.00000
BO41      -0.5855706983   0.00000
BO51      -0.5855706983   0.00000
BO62      -0.2668470954   0.00000
 STOP
 DIPOLES
C1          0.4228843395   -0.0673488649    0.0000000000
O2         -0.1034615419    0.5053399286    0.0000000000
H3         -0.0165213696   -0.0482415064    0.0000000000
H4         -0.0198262913    0.0218907564    0.0422694191
H5         -0.0198262913    0.0218907563   -0.0422694191
H6          0.0542390245    0.0926634634    0.0000000000
BO21       -0.1416030149    0.0921620457    0.0000000000
BO31        0.1408136724    0.3647223640    0.0000000000
BO41        0.1100563933   -0.1933570425   -0.3090715874
BO51        0.1100563934   -0.1933570424    0.3090715875
BO62       -0.0367330526   -0.3761155132    0.0000000000
 STOP
 QUADRUPOLES
C1         -2.2678743431   -2.8591139839   -2.8688627525   -0.0277228251 >
            0.0000000000    0.0000000001
O2         -4.0783913700   -3.8980136532   -4.8765844086    0.2962183296 >
            0.0000000000    0.0000000000
H3         -0.4059400911   -0.4098746797   -0.4074543105   -0.0009614564 >
            0.0000000000    0.0000000000
H4         -0.4362840373   -0.4366779736   -0.4380348566    0.0008795216 >
            0.0016878440   -0.0013364965
H5         -0.4362840373   -0.4366779735   -0.4380348566    0.0008795216 >
           -0.0016878440    0.0013364965
H6         -0.4044692695   -0.3895641034   -0.4080690216   -0.0024116639 >
            0.0000000000    0.0000000000
BO21        0.0205159810    0.1777578836    0.2650581700    0.0400377021 >
            0.0000000000    0.0000000000
BO31       -0.4236250223   -0.5043418707   -0.4510474150   -0.0491316555 >
            0.0000000000    0.0000000000
BO41       -0.4181633465   -0.4300608914   -0.4609528417    0.0316986037 >
            0.0751534245   -0.0406061394
BO51       -0.4181633464   -0.4300608915   -0.4609528417    0.0316986036 >
           -0.0751534245    0.0406061394
BO62        0.0102446252    0.1950749016   -0.0330345872    0.0425429398 >
            0.0000000000    0.0000000000
 STOP
 OCTUPOLES
C1          1.0775851731   -0.1201184363    0.0000000002   -0.0927735101 >
            0.0000000001    0.5841218708    0.0000000001    0.6011184568 >
           -0.3210892166    0.0000000000
O2         -0.0695187790    1.1355826137    0.0000000000    0.2991226789 >
            0.0000000000   -0.0082959921    0.0000000000   -0.0252309446 >
            0.3178769980    0.0000000000
H3         -0.0229202421   -0.0630598575    0.0000000000   -0.0206669563 >
            0.0000000000   -0.0080264874    0.0000000000   -0.0078540589 >
           -0.0210111432    0.0000000000
H4         -0.0265410536    0.0279452041    0.0556107054    0.0093099641 >
            0.0185784006   -0.0088968889    0.0185851489   -0.0091238502 >
            0.0094047698   -0.0001637655
H5         -0.0265410536    0.0279452041   -0.0556107054    0.0093099641 >
           -0.0185784006   -0.0088968889   -0.0185851489   -0.0091238502 >
            0.0094047698    0.0001637655
H6          0.1011240110    0.1161361539    0.0000000000    0.0433268354 >
            0.0000000000    0.0321167195    0.0000000000    0.0338042623 >
            0.0450699182    0.0000000000
BO21       -0.7312578649    0.4165089578    0.0000000002    0.2213354298 >
            0.0000000001   -0.1555222154    0.0000000001   -0.1650564517 >
            0.2331348259    0.0000000000
BO31        0.4489034056    1.2082807789   -0.0000000002    0.3804274840 >
           -0.0000000001    0.1645788357   -0.0000000001    0.1450033375 >
            0.3835755310    0.0000000000
BO41        0.2940365764   -0.6359205400   -0.9744669219   -0.2001665914 >
           -0.2813542536    0.0958627164   -0.3255454879    0.1133548237 >
           -0.2222431056    0.0093826528
BO51        0.2940365768   -0.6359205396    0.9744669222   -0.2001665913 >
            0.2813542537    0.0958627166    0.3255454880    0.1133548238 >
           -0.2222431055   -0.0093826528
BO62       -0.0567314277   -1.1159029120   -0.0000000001   -0.3370468291 >
            0.0000000000   -0.0572274176    0.0000000000   -0.0195714646 >
           -0.3400535093    0.0000000000
 STOP
 POLARIZABLE POINTS
CT1   1.6116509097   0.8155417320   0.0000007876
    1.8637732091    2.9365653304    0.7210944582    1.4489044999 >
    0.0000008734    0.0000014320    0.9370584080    0.0000006926 >
    0.0000024754
CT2  -1.8736953715   0.6942137098   1.1551517796
    3.0217446179    3.1185582229    4.7690046614   -0.5706482367 >
   -0.9804926713    1.2634630497   -0.4211039177   -0.8803723807 >
    1.3074336042
CT3   0.2869446668  -0.0069296130   0.0000007361
    5.4480242840    0.9614650958    0.8760331984   -0.2353975787 >
   -0.0000008182   -0.0000003225    0.0207924882   -0.0000014450 >
   -0.0000002784
CT4  -1.8736948934   0.6942133022  -1.1551519059
    3.0217387973    3.1185592651    4.7690128285   -0.5706483777 >
    0.9804909860   -1.2634624769   -0.4211038759    0.8803704719 >
   -1.3074327791
CT5  -1.8616557378  -1.2887657626  -0.0000000416
    2.9742889715    5.5134152869    2.3875651910    1.1054637064 >
   -0.0000000150    0.0000002475    1.0726396972   -0.0000001565 >
    0.0000003464
CT6   1.4519469010  -0.3533246238   0.5095794681
    2.3530283679    1.5178490095    2.1762683402   -0.2965680248 >
    0.7634823392   -0.6657640718   -0.3018595262    0.6825850662 >
   -0.6835903900
CT7   1.4519456804  -0.3533224102  -0.5095808240
    2.3530212856    1.5178402413    2.1762771860   -0.2965647531 >
   -0.7634806941    0.6657621426   -0.3018576072   -0.6825831354 >
    0.6835878465
 STOP
 DYNAMIC POLARIZABLE POINTS
CT  1   1.6116509097   0.8155417320   0.0000007876 -- FOR W= 0.002792I A.U.
    1.8635276969    2.9369823863    0.7210418841    1.4486506996 >
    0.0000008735    0.0000014322    0.9367157553    0.0000005431 >
    0.0000018936
CT  2  -1.8736953715   0.6942137098   1.1551517796
    3.0217224697    3.1186119657    4.7689015722   -0.5707277265 >
   -0.9805653180    1.2634750452   -0.4208903019   -0.8802806130 >
    1.3073940797
CT  3   0.2869446668  -0.0069296130   0.0000007361
    5.4476409777    0.9612680696    0.8758250702   -0.2355994023 >
   -0.0000008180   -0.0000003225    0.0203745604   -0.0000007623 >
   -0.0000003939
CT  4  -1.8736948934   0.6942133022  -1.1551519059
    3.0217166493    3.1186130076    4.7689096966   -0.5707278671 >
    0.9805636324   -1.2634744727   -0.4208902589    0.8802789226 >
   -1.3073933086
CT  5  -1.8616557378  -1.2887657626  -0.0000000416
    2.9741062936    5.5126813977    2.3875853326    1.1055682775 >
   -0.0000000149    0.0000002475    1.0725777430   -0.0000000299 >
    0.0000002782
CT  6   1.4519469010  -0.3533246238   0.5095794681
    2.3532599401    1.5181295538    2.1763175240   -0.2964587325 >
    0.7635224821   -0.6658838572   -0.3020215350    0.6824119279 >
   -0.6836462558
CT  7   1.4519456804  -0.3533224102  -0.5095808240
    2.3532528573    1.5181207823    2.1763267363   -0.2964554610 >
   -0.7635208372    0.6658819281   -0.3020196154   -0.6824099884 >
    0.6836437074
CT  1   1.6116509097   0.8155417320   0.0000007876 -- FOR W= 0.015107I A.U.
    1.8627396093    2.9353946608    0.7210260747    1.4475048016 >
    0.0000008728    0.0000014317    0.9358849047    0.0000005421 >
    0.0000018912
CT  2  -1.8736953715   0.6942137098   1.1551517796
    3.0200738010    3.1166868777    4.7651685130   -0.5700747737 >
   -0.9795082911    1.2621259191   -0.4203868681   -0.8790927169 >
    1.3059829453
CT  3   0.2869446668  -0.0069296130   0.0000007361
    5.4437696209    0.9610530699    0.8755093305   -0.2353671698 >
   -0.0000008170   -0.0000003225    0.0205492803   -0.0000007609 >
   -0.0000003934
CT  4  -1.8736948934   0.6942133022  -1.1551519059
    3.0200679855    3.1166879190    4.7651766304   -0.5700749131 >
    0.9795066065   -1.2621253471   -0.4203868251    0.8790910284 >
   -1.3059821752
CT  5  -1.8616557378  -1.2887657626  -0.0000000416
    2.9726844557    5.5083507493    2.3864475901    1.1046192242 >
   -0.0000000149    0.0000002473    1.0714019460   -0.0000000298 >
    0.0000002779
CT  6   1.4519469010  -0.3533246238   0.5095794681
    2.3517142811    1.5175741057    2.1750761350   -0.2961697148 >
    0.7628040790   -0.6653781668   -0.3015981692    0.6814949623 >
   -0.6828562430
CT  7   1.4519456804  -0.3533224102  -0.5095808240
    2.3517072043    1.5175653421    2.1750853406   -0.2961664471 >
   -0.7628024353    0.6653762388   -0.3015962504   -0.6814930253 >
    0.6828536977
CT  1   1.6116509097   0.8155417320   0.0000007876 -- FOR W= 0.039002I A.U.
    1.8581333444    2.9261299470    0.7209315808    1.4408165860 >
    0.0000008685    0.0000014290    0.9310466308    0.0000005367 >
    0.0000018773
CT  2  -1.8736953715   0.6942137098   1.1551517796
    3.0104553177    3.1054617167    4.7434253039   -0.5662756734 >
   -0.9733551637    1.2542757309   -0.4174627921   -0.8722012779 >
    1.2977714270
CT  3   0.2869446668  -0.0069296130   0.0000007361
    5.4211959440    0.9597936570    0.8736706151   -0.2340135723 >
   -0.0000008113   -0.0000003222    0.0215545965   -0.0000007527 >
   -0.0000003907
CT  4  -1.8736948934   0.6942133022  -1.1551519059
    3.0104495306    3.1054627538    4.7434333799   -0.5662758059 >
    0.9733534850   -1.2542751617   -0.4174627496    0.8721996008 >
   -1.2977706624
CT  5  -1.8616557378  -1.2887657626  -0.0000000416
    2.9643752385    5.4831167195    2.3798020196    1.0990807226 >
   -0.0000000146    0.0000002463    1.0645621774   -0.0000000293 >
    0.0000002767
CT  6   1.4519469010  -0.3533246238   0.5095794681
    2.3427064629    1.5143308708    2.1678505801   -0.2944882761 >
    0.7586217933   -0.6624336808   -0.2991406098    0.6761753133 >
   -0.6782768427
CT  7   1.4519456804  -0.3533224102  -0.5095808240
    2.3426994209    1.5143221531    2.1678597465   -0.2944850299 >
   -0.7586201573    0.6624317591   -0.2991386953   -0.6761733908 >
    0.6782743154
CT  1   1.6116509097   0.8155417320   0.0000007876 -- FOR W= 0.077996I A.U.
    1.8421016070    2.8940842103    0.7205736324    1.4176637871 >
    0.0000008538    0.0000014192    0.9144411706    0.0000005187 >
    0.0000018307
CT  2  -1.8736953715   0.6942137098   1.1551517796
    2.9772081194    3.0667402127    4.6687361353   -0.5532785930 >
   -0.9522657350    1.2274121230   -0.4075244392   -0.8488794343 >
    1.2696653720
CT  3   0.2869446668  -0.0069296130   0.0000007361
    5.3433339303    0.9553737158    0.8673568680   -0.2293518144 >
   -0.0000007917   -0.0000003211    0.0248483399   -0.0000007252 >
   -0.0000003814
CT  4  -1.8736948934   0.6942133022  -1.1551519059
    2.9772024302    3.0667412354    4.6687440695   -0.5532787023 >
    0.9522640766   -1.2274115634   -0.4075243977    0.8488777954 >
   -1.2696646262
CT  5  -1.8616557378  -1.2887657626  -0.0000000416
    2.9354722862    5.3963076216    2.3567299496    1.0799191939 >
   -0.0000000138    0.0000002430    1.0411809561   -0.0000000277 >
    0.0000002722
CT  6   1.4519469010  -0.3533246238   0.5095794681
    2.3116973290    1.5030845953    2.1430874505   -0.2887380196 >
    0.7442826517   -0.6523310503   -0.2908070435    0.6581740089 >
   -0.6628256785
CT  7   1.4519456804  -0.3533224102  -0.5095808240
    2.3116904069    1.5030760356    2.1430964827   -0.2887348467 >
   -0.7442810416    0.6523291502   -0.2908051438   -0.6581721359 >
    0.6628232117
CT  1   1.6116509097   0.8155417320   0.0000007876 -- FOR W= 0.138651I A.U.
    1.7977805282    2.8069959422    0.7193216931    1.3546639365 >
    0.0000008144    0.0000013917    0.8703085727    0.0000004757 >
    0.0000017145
CT  2  -1.8736953715   0.6942137098   1.1551517796
    2.8869823245    2.9622966275    4.4696512444   -0.5190516396 >
   -0.8964295760    1.1565985337   -0.3818250954   -0.7892349142 >
    1.1955487139
CT  3   0.2869446668  -0.0069296130   0.0000007361
    5.1334631670    0.9428598213    0.8505070249   -0.2168442021 >
   -0.0000007401   -0.0000003171    0.0324374768   -0.0000006565 >
   -0.0000003575
CT  4  -1.8736948934   0.6942133022  -1.1551519059
    2.8869768979    2.9622976110    4.4696588029   -0.5190516889 >
    0.8964279724   -1.1565979994   -0.3818250531    0.7892333715 >
   -1.1955480170
CT  5  -1.8616557378  -1.2887657626  -0.0000000416
    2.8557071181    5.1640186796    2.2933850403    1.0278821174 >
   -0.0000000115    0.0000002339    0.9797364663   -0.0000000236 >
    0.0000002602
CT  6   1.4519469010  -0.3533246238   0.5095794681
    2.2285331168    1.4722800962    2.0773690408   -0.2736092171 >
    0.7062785131   -0.6254928046   -0.2694099651    0.6121669545 >
   -0.6236084949
CT  7   1.4519456804  -0.3533224102  -0.5095808240
    2.2285265188    1.4722719581    2.0773777163   -0.2736062340 >
   -0.7062769723    0.6254909623   -0.2694081054   -0.6121652076 >
    0.6236061813
CT  1   1.6116509097   0.8155417320   0.0000007876 -- FOR W= 0.233223I A.U.
    1.6911941374    2.6052741076    0.7144171283    1.2091960170 >
    0.0000007273    0.0000013230    0.7733873596    0.0000004022 >
    0.0000014917
CT  2  -1.8736953715   0.6942137098   1.1551517796
    2.6781440214    2.7243182425    4.0282456674   -0.4455224114 >
   -0.7749059065    1.0039209676   -0.3287810249   -0.6685927822 >
    1.0357590401
CT  3   0.2869446668  -0.0069296130   0.0000007361
    4.6573034239    0.9110171757    0.8125616787   -0.1888237189 >
   -0.0000006291   -0.0000003030    0.0433665416   -0.0000005245 >
   -0.0000003084
CT  4  -1.8736948934   0.6942133022  -1.1551519059
    2.6781391835    2.7243191344    4.0282524052   -0.4455223393 >
    0.7749044280   -1.0039204883   -0.3287809643    0.6685914272 >
   -1.0357584464
CT  5  -1.8616557378  -1.2887657626  -0.0000000416
    2.6647781897    4.6453098018    2.1433739728    0.9084498562 >
   -0.0000000068    0.0000002135    0.8482464297   -0.0000000159 >
    0.0000002330
CT  6   1.4519469010  -0.3533246238   0.5095794681
    2.0414521372    1.3992953025    1.9316215622   -0.2411417242 >