! Yb atom computed using the Sapporo-DKH3-QZP-2012 basis
!
! - Tests scalar relativistic methods with h and i functions
! - Test results obtained using GAMESS compiled for Linux64 using ifort
!   version 18.0.3 and run on an Intel Sandybridge E5-1650 processor.
!
! RESC:  FINAL RHF ENERGY IS   -17410.9910953180
! DK1:   FINAL RHF ENERGY IS   -15455.6395869143
! DK2:   FINAL RHF ENERGY IS   -14456.9016988561
! DK3:   FINAL RHF ENERGY IS   -14534.5964519608
! IOTC:  FINAL RHF ENERGY IS   -14534.0113222236
!
! LUT-IOTC and NESC are limited to g functions
!
 $contrl scftyp=rhf relwfn=dk ispher=1 maxit=200 $end
 $relwfn norder=3 $end
 $scf rstrct=.t. soscf=.t. diis=.f. shift=.t. damp=.t. $end
 $system mwords=25 $end
 $guess  guess=moread norb=231 $end
 $data
Ytterbium
Oh

Yb 70.0
S   9
1  23830793.0641506              0.0008976
2   3333682.5843318              0.0031757
3    628227.4844634              0.0090029
4    143474.7346443              0.0234285
5     37746.8510644              0.0584113
6     11138.7489344              0.1395027
7      3588.2484472              0.2937935
8      1276.9443415              0.4207887
9       479.0835224              0.2526063
S   4
1      4679.9892421             -0.0171890
2      1195.6209409             -0.0852513
3       173.7560017              0.5158985
4        73.5618098              0.5549514
S   1
1        22.5010160              1.0000000
S   3
1       125.9208662             -0.2657851
2        22.6248957              0.8766477
3        10.3009445              0.2722601
S   1
1         6.6217270              1.0000000
S   1
1         5.3888170              1.0000000
S   1
1         2.4787970              1.0000000
S   1
1         0.9550440              1.0000000
S   1
1         0.4243320              1.0000000
S   1
1         0.2223160              1.0000000
S   1
1         0.0809640              1.0000000
S   1
1         0.0314500              1.0000000
S   1
1         0.0147300              1.0000000
P   8
1    276921.3374780              0.0004784
2     41326.8643376              0.0022348
3      9536.8707908              0.0094942
4      2839.3310576              0.0373996
5      1002.0287146              0.1260032
6       398.1179166              0.3053856
7       169.3152536              0.4552232
8        72.4364924              0.2534050
P   4
1       329.9665207             -0.0185121
2        52.9367139              0.2967150
3        26.0742703              0.5377377
4        12.5389352              0.2416532
P   1
1         9.8481620              1.0000000
P   1
1         8.2479150              1.0000000
P   1
1         3.9548670              1.0000000
P   1
1         1.5265110              1.0000000
P   1
1         1.1134810              1.0000000
P   1
1         0.5270790              1.0000000
P   1
1         0.2291260              1.0000000
P   1
1         0.1050670              1.0000000
P   1
1         0.0458940              1.0000000
D   7
1      3055.5837528              0.0014020
2       836.5724405              0.0114125
3       307.5228608              0.0573702
4       129.9296502              0.1881856
5        59.2069085              0.3785874
6        27.7179614              0.4204631
7        12.5252961              0.1588983
D   1
1        19.4167010              1.0000000
D   1
1         8.6233720              1.0000000
D   1
1         3.9378940              1.0000000
D   1
1         1.7265250              1.0000000
D   1
1         0.8137800              1.0000000
D   1
1         0.3540600              1.0000000
D   1
1         0.1406180              1.0000000
D   1
1         0.0519730              1.0000000
F   3
1       153.1129370              0.0390900
2        51.3533890              0.2518370
3        20.4409540              0.8113270
F   1
1         8.6755970              1.0000000
F   1
1         3.6131800              1.0000000
F   1
1         1.4729830              1.0000000
F   1
1         0.8000150              1.0000000
F   1
1         0.4252530              1.0000000
F   1
1         0.1363330              1.0000000
G   1
1        17.9891320              1.0000000
G   1
1         8.9199910              1.0000000
G   1
1         4.6049750              1.0000000
G   1
1         1.8740700              1.0000000
G   1
1         0.7363390              1.0000000
H   1
1        13.1444670              1.0000000
H   1
1         5.6164330              1.0000000
H   1
1         1.7668230              1.0000000
I   2
1        11.8269620              0.5997380
2         4.8042920              0.5629970

 $END
 
--- CLOSED SHELL ORBITALS --- GENERATED AT 14:11:24 30-AUG-2023    
Ytterbium                                                                       
E(RHF)=   -14534.0113222279, E(NUC)=    0.0000000000,   26 ITERS
 $VEC   
 1  1 1.23584205E+00 2.71879993E+00-9.48400262E+00 9.62399901E+00-5.40941985E+00
 1  2 3.80677823E+00-3.97446606E-01 1.29557163E-01-8.61141827E-02 4.71206474E-02
 1  3-1.62527275E-02 8.05690946E-03-2.76196491E-03 0.00000000E+00 0.00000000E+00
 1  4 0.00000000E+00 0.00000000E+00 0.00000000E+00 0.00000000E+00 0.00000000E+00
 1  5 0.00000000E+00 0.00000000E+00 0.00000000E+00 0.00000000E+00 0.00000000E+00
 1  6 0.00000000E+00 0.00000000E+00 0.00000000E+00 0.00000000E+00 0.00000000E+00
 1  7 0.00000000E+00 0.00000000E+00 0.00000000E+00 0.00000000E+00 0.00000000E+00
 1  8 0.00000000E+00 0.00000000E+00 0.00000000E+00 0.00000000E+00 0.00000000E+00
 1  9 0.00000000E+00 0.00000000E+00 0.00000000E+00 0.00000000E+00 0.00000000E+00
 1 10 0.00000000E+00 0.00000000E+00 0.00000000E+00 0.00000000E+00 0.00000000E+00
 1 11 0.00000000E+00 0.00000000E+00 0.00000000E+00 0.00000000E+00 0.00000000E+00
 1 12 0.00000000E+00 0.00000000E+00 0.00000000E+00 0.00000000E+00 0.00000000E+00
 1 13 0.00000000E+00 0.00000000E+00 0.00000000E+00 0.00000000E+00 0.00000000E+00
 1 14 0.00000000E+00 0.00000000E+00 0.00000000E+00 0.00000000E+00 0.00000000E+00
 1 15 0.00000000E+00 0.00000000E+00 0.00000000E+00 0.00000000E+00 0.00000000E+00
 1 16 0.00000000E+00 0.00000000E+00 0.00000000E+00 0.00000000E+00 0.00000000E+00
 1 17 0.00000000E+00 0.00000000E+00 0.00000000E+00 0.00000000E+00 0.00000000E+00
 1 18 0.00000000E+00 0.00000000E+00 0.00000000E+00 0.00000000E+00 0.00000000E+00
 1 19 0.00000000E+00 0.00000000E+00 0.00000000E+00 0.00000000E+00 0.00000000E+00
 1 20 0.00000000E+00 0.00000000E+00 0.00000000E+00 0.00000000E+00 0.00000000E+00
 1 21 0.00000000E+00 0.00000000E+00 0.00000000E+00 0.00000000E+00 0.00000000E+00
 1 22 0.00000000E+00 0.00000000E+00 0.00000000E+00 0.00000000E+00 0.00000000E+00
 1 23 0.00000000E+00 0.00000000E+00 0.00000000E+00 0.00000000E+00 0.00000000E+00
 1 24 0.00000000E+00 0.00000000E+00 0.00000000E+00 0.00000000E+00 0.00000000E+00
 1 25 0.00000000E+00 0.00000000E+00 0.00000000E+00 0.00000000E+00 0.00000000E+00
 1 26 0.00000000E+00 0.00000000E+00 0.00000000E+00 0.00000000E+00 0.00000000E+00
 1 27 0.00000000E+00 0.00000000E+00 0.00000000E+00 0.00000000E+00 0.00000000E+00
 1 28 0.00000000E+00 0.00000000E+00 0.00000000E+00 0.00000000E+00 0.00000000E+00
 1 29 0.00000000E+00 0.00000000E+00 0.00000000E+00 0.00000000E+00 0.00000000E+00
 1 30 0.00000000E+00 0.00000000E+00 0.00000000E+00 0.00000000E+00 0.00000000E+00
 1 31 0.00000000E+00 0.00000000E+00 0.00000000E+00 0.00000000E+00 0.00000000E+00
 1 32 0.00000000E+00 0.00000000E+00 0.00000000E+00 0.00000000E+00 0.00000000E+00
 1 33 0.00000000E+00 0.00000000E+00 0.00000000E+00 0.00000000E+00 0.00000000E+00
 1 34 0.00000000E+00 0.00000000E+00 0.00000000E+00 0.00000000E+00 0.00000000E+00
 1 35 3.43687243E-09 3.43687243E-09 3.43687243E-09 0.00000000E+00 0.00000000E+00
 1 36 0.00000000E+00 0.00000000E+00 0.00000000E+00 0.00000000E+00-3.01863965E-09
 1 37-3.01863965E-09-3.01863965E-09 0.00000000E+00 0.00000000E+00 0.00000000E+00
 1 38-5.01034552E-09-5.01034552E-09-5.01034552E-09 0.00000000E+00 0.00000000E+00
 1 39 0.00000000E+00 0.00000000E+00 0.00000000E+00 0.00000000E+00 4.40063690E-09
 1 40 4.40063690E-09 4.40063690E-09 0.00000000E+00 0.00000000E+00 0.00000000E+00
 1 41 3.29607635E-09 3.29607635E-09 3.29607635E-09 0.00000000E+00 0.00000000E+00
 1 42 0.00000000E+00 0.00000000E+00 0.00000000E+00 0.00000000E+00-2.89497704E-09
 1 43-2.89497704E-09-2.89497704E-09 0.00000000E+00 0.00000000E+00 0.00000000E+00
 1 44-1.22994336E-09-1.22994336E-09-1.22994336E-09 0.00000000E+00 0.00000000E+00
 1 45 0.00000000E+00 0.00000000E+00 0.00000000E+00 0.00000000E+00 1.08027163E-09
 1 46 1.08027163E-09 1.08027163E-09 0.00000000E+00 0.00000000E+00 0.00000000E+00
 1 47 3.94857132E-10 3.94857132E-10 3.94857132E-10 0.00000000E+00 0.00000000E+00
 1 48 0.00000000E+00 0.00000000E+00 0.00000000E+00 0.00000000E+00-3.46806993E-10
 1 49-3.46806993E-10-3.46806993E-10 0.00000000E+00 0.00000000E+00 0.00000000E+00
 1 50 0.00000000E+00 0.00000000E+00 0.00000000E+00 0.00000000E+00 0.00000000E+00
 1 51 0.00000000E+00 0.00000000E+00 0.00000000E+00 0.00000000E+00 0.00000000E+00
 1 52 0.00000000E+00 0.00000000E+00 0.00000000E+00 0.00000000E+00 0.00000000E+00
 1 53 0.00000000E+00 0.00000000E+00 0.00000000E+00 0.00000000E+00 0.00000000E+00
 1 54 0.00000000E+00 0.00000000E+00 0.00000000E+00 0.00000000E+00 0.00000000E+00
 1 55 0.00000000E+00 0.00000000E+00 0.00000000E+00 0.00000000E+00 0.00000000E+00
 1 56 0.00000000E+00 0.00000000E+00 0.00000000E+00 0.00000000E+00 0.00000000E+00
 1 57 0.00000000E+00 0.00000000E+00 0.00000000E+00 0.00000000E+00 0.00000000E+00
 1 58 0.00000000E+00 0.00000000E+00 0.00000000E+00 0.00000000E+00 0.00000000E+00
 1 59 0.00000000E+00 0.00000000E+00 0.00000000E+00 0.00000000E+00 0.00000000E+00
 1 60 0.00000000E+00 0.00000000E+00 0.00000000E+00 0.00000000E+00 0.00000000E+00
 1 61 0.00000000E+00 0.00000000E+00 0.00000000E+00 0.00000000E+00 0.00000000E+00
 1 62 0.00000000E+00 0.00000000E+00 0.00000000E+00-6.51212352E-10-6.51212352E-10
 1 63-6.51212352E-10 0.00000000E+00 0.00000000E+00 0.00000000E+00 0.00000000E+00
 1 64 0.00000000E+00 0.00000000E+00 8.50211398E-10 8.50211398E-10 8.50211398E-10
 1 65 8.50211398E-10 8.50211398E-10 8.50211398E-10 0.00000000E+00 0.00000000E+00
 1 66 0.00000000E+00 0.00000000E+00 0.00000000E+00 0.00000000E+00 0.00000000E+00
 1 67 0.00000000E+00 0.00000000E+00 0.00000000E+00 0.00000000E+00 0.00000000E+00
 1 68-2.98699692E-09
 2  1 5.02299765E-01 6.54808720E-01-5.96713756E+00 6.13997895E+00-3.96664209E+00
 2  2 2.98337774E+00-3.85936024E-01 1.47098044E-01-1.04222854E-01 5.85177876E-02
 2  3-2.05626868E-02 1.02617555E-02-3.52591944E-03 0.00000000E+00 0.00000000E+00
 2  4 0.00000000E+00 0.00000000E+00 0.00000000E+00 0.00000000E+00 0.00000000E+00
 2  5 0.00000000E+00 0.00000000E+00 0.00000000E+00 0.00000000E+00 0.00000000E+00
 2  6 0.00000000E+00 0.00000000E+00 0.00000000E+00 0.00000000E+00 0.00000000E+00
 2  7 0.00000000E+00 0.00000000E+00 0.00000000E+00 0.00000000E+00 0.00000000E+00
 2  8 0.00000000E+00 0.00000000E+00 0.00000000E+00 0.00000000E+00 0.00000000E+00
 2  9 0.00000000E+00 0.00000000E+00 0.00000000E+00 0.00000000E+00 0.00000000E+00
 2 10 0.00000000E+00 0.00000000E+00 0.00000000E+00 0.00000000E+00 0.00000000E+00
 2 11 0.00000000E+00 0.00000000E+00 0.00000000E+00 0.00000000E+00 0.00000000E+00
 2 12 0.00000000E+00 0.00000000E+00 0.00000000E+00 0.00000000E+00 0.00000000E+00
 2 13 0.00000000E+00 0.00000000E+00 0.00000000E+00 0.00000000E+00 0.00000000E+00
 2 14 0.00000000E+00 0.00000000E+00 0.00000000E+00 0.00000000E+00 0.00000000E+00
 2 15 0.00000000E+00 0.00000000E+00 0.00000000E+00 0.00000000E+00 0.00000000E+00
 2 16 0.00000000E+00 0.00000000E+00 0.00000000E+00 0.00000000E+00 0.00000000E+00
 2 17 0.00000000E+00 0.00000000E+00 0.00000000E+00 0.00000000E+00 0.00000000E+00
 2 18 0.00000000E+00 0.00000000E+00 0.00000000E+00 0.00000000E+00 0.00000000E+00
 2 19 0.00000000E+00 0.00000000E+00 0.00000000E+00 0.00000000E+00 0.00000000E+00
 2 20 0.00000000E+00 0.00000000E+00 0.00000000E+00 0.00000000E+00 0.00000000E+00
 2 21 0.00000000E+00 0.00000000E+00 0.00000000E+00 0.00000000E+00 0.00000000E+00
 2 22 0.00000000E+00 0.00000000E+00 0.00000000E+00 0.00000000E+00 0.00000000E+00
 2 23 0.00000000E+00 0.00000000E+00 0.00000000E+00 0.00000000E+00 0.00000000E+00
 2 24 0.00000000E+00 0.00000000E+00 0.00000000E+00 0.00000000E+00 0.00000000E+00
 2 25 0.00000000E+00 0.00000000E+00 0.00000000E+00 0.00000000E+00 0.00000000E+00
 2 26 0.00000000E+00 0.00000000E+00 0.00000000E+00 0.00000000E+00 0.00000000E+00
 2 27 0.00000000E+00 0.00000000E+00 0.00000000E+00 0.00000000E+00 0.00000000E+00
 2 28 0.00000000E+00 0.00000000E+00 0.00000000E+00 0.00000000E+00 0.00000000E+00
 2 29 0.00000000E+00 0.00000000E+00 0.00000000E+00 0.00000000E+00 0.00000000E+00
 2 30 0.00000000E+00 0.00000000E+00 0.00000000E+00 0.00000000E+00 0.00000000E+00
 2 31 0.00000000E+00 0.00000000E+00 0.00000000E+00 0.00000000E+00 0.00000000E+00
 2 32 0.00000000E+00 0.00000000E+00 0.00000000E+00 0.00000000E+00 0.00000000E+00
 2 33 0.00000000E+00 0.00000000E+00 0.00000000E+00 0.00000000E+00 0.00000000E+00
 2 34 0.00000000E+00 0.00000000E+00 0.00000000E+00 0.00000000E+00 0.00000000E+00
 2 35-2.01447308E-08-2.01447308E-08-2.01447308E-08 0.00000000E+00 0.00000000E+00
 2 36 0.00000000E+00 0.00000000E+00 0.00000000E+00 0.00000000E+00 1.76933199E-08
 2 37 1.76933199E-08 1.76933199E-08 0.00000000E+00 0.00000000E+00 0.00000000E+00
 2 38-2.51622539E-08-2.51622539E-08-2.51622539E-08 0.00000000E+00 0.00000000E+00
 2 39 0.00000000E+00 0.00000000E+00 0.00000000E+00 0.00000000E+00 2.21002609E-08
 2 40 2.21002609E-08 2.21002609E-08 0.00000000E+00 0.00000000E+00 0.00000000E+00
 2 41 5.54818604E-09 5.54818604E-09 5.54818604E-09 0.00000000E+00 0.00000000E+00
 2 42 0.00000000E+00 0.00000000E+00 0.00000000E+00 0.00000000E+00-4.87302764E-09
 2 43-4.87302764E-09-4.87302764E-09 0.00000000E+00 0.00000000E+00 0.00000000E+00
 2 44-4.15813500E-09-4.15813500E-09-4.15813500E-09 0.00000000E+00 0.00000000E+00
 2 45 0.00000000E+00 0.00000000E+00 0.00000000E+00 0.00000000E+00 3.65213183E-09
 2 46 3.65213183E-09 3.65213183E-09 0.00000000E+00 0.00000000E+00 0.00000000E+00
 2 47 1.48861445E-09 1.48861445E-09 1.48861445E-09 0.00000000E+00 0.00000000E+00
 2 48 0.00000000E+00 0.00000000E+00 0.00000000E+00 0.00000000E+00-1.30746506E-09
 2 49-1.30746506E-09-1.30746506E-09 0.00000000E+00 0.00000000E+00 0.00000000E+00
 2 50 0.00000000E+00 0.00000000E+00 0.00000000E+00 0.00000000E+00 0.00000000E+00
 2 51 0.00000000E+00 0.00000000E+00 0.00000000E+00 0.00000000E+00 0.00000000E+00
 2 52 0.00000000E+00 0.00000000E+00 0.00000000E+00 0.00000000E+00 0.00000000E+00
 2 53 0.00000000E+00 0.00000000E+00 0.00000000E+00 0.00000000E+00 0.00000000E+00
 2 54 0.00000000E+00 0.00000000E+00 0.00000000E+00 0.00000000E+00 0.00000000E+00
 2 55 0.00000000E+00 0.00000000E+00 0.00000000E+00 0.00000000E+00 0.00000000E+00
 2 56 0.00000000E+00 0.00000000E+00 0.00000000E+00 0.00000000E+00 0.00000000E+00
 2 57 0.00000000E+00 0.00000000E+00 0.00000000E+00 0.00000000E+00 0.00000000E+00
 2 58 0.00000000E+00 0.00000000E+00 0.00000000E+00 0.00000000E+00 0.00000000E+00
 2 59 0.00000000E+00 0.00000000E+00 0.00000000E+00 0.00000000E+00 0.00000000E+00
 2 60 0.00000000E+00 0.00000000E+00 0.00000000E+00 0.00000000E+00 0.00000000E+00
 2 61 0.00000000E+00 0.00000000E+00 0.00000000E+00 0.00000000E+00 0.00000000E+00
 2 62 0.00000000E+00 0.00000000E+00 0.00000000E+00-4.63211281E-06-4.63211281E-06
 2 63-4.63211281E-06 0.00000000E+00 0.00000000E+00 0.00000000E+00 0.00000000E+00
 2 64 0.00000000E+00 0.00000000E+00 6.04760504E-06 6.04760504E-06 6.04760504E-06
 2 65 6.04760504E-06 6.04760504E-06 6.04760504E-06 0.00000000E+00 0.00000000E+00
 2 66 0.00000000E+00 0.00000000E+00 0.00000000E+00 0.00000000E+00 0.00000000E+00
 2 67 0.00000000E+00 0.00000000E+00 0.00000000E+00 0.00000000E+00 0.00000000E+00
 2 68-2.12466895E-05
 3  1 0.00000000E+00 0.00000000E+00 0.00000000E+00 0.00000000E+00 0.00000000E+00
 3  2 0.00000000E+00 0.00000000E+00 0.00000000E+00 0.00000000E+00 0.00000000E+00
 3  3 0.00000000E+00 0.00000000E+00 0.00000000E+00 9.95157212E-01 0.00000000E+00
 3  4 0.00000000E+00 4.97426529E-03 0.00000000E+00 0.00000000E+00 8.81507233E-02
 3  5 0.00000000E+00 0.00000000E+00-9.74951307E-02 0.00000000E+00 0.00000000E+00
 3  6 2.48007154E-02 0.00000000E+00 0.00000000E+00-2.80377149E-02 0.00000000E+00
 3  7 0.00000000E+00 2.48964028E-02 0.00000000E+00 0.00000000E+00-6.83714517E-03
 3  8 0.00000000E+00 0.00000000E+00 2.83380999E-03 0.00000000E+00 0.00000000E+00
 3  9-1.26488243E-03 0.00000000E+00 0.00000000E+00 3.50300252E-04 0.00000000E+00
 3 10 0.00000000E+00 0.00000000E+00 0.00000000E+00 0.00000000E+00 0.00000000E+00
 3 11 0.00000000E+00 0.00000000E+00 0.00000000E+00 0.00000000E+00 0.00000000E+00
 3 12 0.00000000E+00 0.00000000E+00 0.00000000E+00 0.00000000E+00 0.00000000E+00
 3 13 0.00000000E+00 0.00000000E+00 0.00000000E+00 0.00000000E+00 0.00000000E+00
 3 14 0.00000000E+00 0.00000000E+00 0.00000000E+00 0.00000000E+00 0.00000000E+00
 3 15 0.00000000E+00 0.00000000E+00 0.00000000E+00 0.00000000E+00 0.00000000E+00
 3 16 0.00000000E+00 0.00000000E+00 0.00000000E+00 0.00000000E+00 0.00000000E+00
 3 17 0.00000000E+00 0.00000000E+00 0.00000000E+00 0.00000000E+00 0.00000000E+00
 3 18 0.00000000E+00 0.00000000E+00 0.00000000E+00 0.00000000E+00 0.00000000E+00
 3 19 0.00000000E+00 0.00000000E+00 0.00000000E+00 0.00000000E+00 0.00000000E+00
 3 20 0.00000000E+00 0.00000000E+00 0.00000000E+00 0.00000000E+00 0.00000000E+00
 3 21 1.86354901E-08 0.00000000E+00 0.00000000E+00 0.00000000E+00 0.00000000E+00
 3 22-1.25010668E-08 0.00000000E+00-1.25010668E-08 0.00000000E+00 0.00000000E+00
 3 23-4.61618070E-09 0.00000000E+00 0.00000000E+00 0.00000000E+00 0.00000000E+00
 3 24 3.09662816E-09 0.00000000E+00 3.09662816E-09 0.00000000E+00 0.00000000E+00
 3 25 3.94858348E-09 0.00000000E+00 0.00000000E+00 0.00000000E+00 0.00000000E+00
 3 26-2.64879032E-09 0.00000000E+00-2.64879032E-09 0.00000000E+00 0.00000000E+00
 3 27-2.75439721E-09 0.00000000E+00 0.00000000E+00 0.00000000E+00 0.00000000E+00
 3 28 1.84770582E-09 0.00000000E+00 1.84770582E-09 0.00000000E+00 0.00000000E+00
 3 29 2.14147237E-09 0.00000000E+00 0.00000000E+00 0.00000000E+00 0.00000000E+00
 3 30-1.43654334E-09 0.00000000E+00-1.43654334E-09 0.00000000E+00 0.00000000E+00
 3 31-8.72982837E-10 0.00000000E+00 0.00000000E+00 0.00000000E+00 0.00000000E+00
 3 32 5.85614690E-10 0.00000000E+00 5.85614690E-10 0.00000000E+00 0.00000000E+00
 3 33 1.55631524E-10 0.00000000E+00 0.00000000E+00 0.00000000E+00 0.00000000E+00
 3 34-1.04400800E-10 0.00000000E+00-1.04400800E-10 0.00000000E+00 0.00000000E+00
 3 35 0.00000000E+00 0.00000000E+00 0.00000000E+00 0.00000000E+00 0.00000000E+00
 3 36 0.00000000E+00 0.00000000E+00 0.00000000E+00 0.00000000E+00 0.00000000E+00
 3 37 0.00000000E+00 0.00000000E+00 0.00000000E+00 0.00000000E+00 0.00000000E+00
 3 38 0.00000000E+00 0.00000000E+00 0.00000000E+00 0.00000000E+00 0.00000000E+00
 3 39 0.00000000E+00 0.00000000E+00 0.00000000E+00 0.00000000E+00 0.00000000E+00
 3 40 0.00000000E+00 0.00000000E+00 0.00000000E+00 0.00000000E+00 0.00000000E+00
 3 41 0.00000000E+00 0.00000000E+00 0.00000000E+00 0.00000000E+00 0.00000000E+00
 3 42 0.00000000E+00 0.00000000E+00 0.00000000E+00 0.00000000E+00 0.00000000E+00
 3 43 0.00000000E+00 0.00000000E+00 0.00000000E+00 0.00000000E+00 0.00000000E+00
 3 44 0.00000000E+00 0.00000000E+00 0.00000000E+00 0.00000000E+00 0.00000000E+00
 3 45 0.00000000E+00 0.00000000E+00 0.00000000E+00 0.00000000E+00 0.00000000E+00
 3 46 0.00000000E+00 0.00000000E+00 0.00000000E+00 0.00000000E+00 0.00000000E+00
 3 47 0.00000000E+00 0.00000000E+00 0.00000000E+00 0.00000000E+00 0.00000000E+00
 3 48 0.00000000E+00 0.00000000E+00 0.00000000E+00 0.00000000E+00 0.00000000E+00
 3 49 0.00000000E+00 0.00000000E+00 0.00000000E+00 0.00000000E+00 0.00000000E+00
 3 50 9.59503231E-08 0.00000000E+00 0.00000000E+00 0.00000000E+00 0.00000000E+00
 3 51 6.98251812E-08 0.00000000E+00 6.98251812E-08 0.00000000E+00-1.04690385E-07
 3 52-1.04690385E-07 0.00000000E+00 0.00000000E+00 0.00000000E+00 0.00000000E+00
 3 53 0.00000000E+00 0.00000000E+00 0.00000000E+00 0.00000000E+00 0.00000000E+00
 3 54 1.78005721E-08 3.48896345E-08 0.00000000E+00 0.00000000E+00 0.00000000E+00
 3 55 0.00000000E+00 2.48318545E-08 0.00000000E+00 2.48318545E-08 0.00000000E+00
 3 56-3.80677122E-08-3.80677122E-08 0.00000000E+00 0.00000000E+00 0.00000000E+00
 3 57 0.00000000E+00 0.00000000E+00 0.00000000E+00 0.00000000E+00 0.00000000E+00
 3 58 0.00000000E+00 7.45305985E-09 2.14644961E-09 0.00000000E+00 0.00000000E+00
 3 59 0.00000000E+00 0.00000000E+00 1.63414813E-09 0.00000000E+00 1.63414813E-09
 3 60 0.00000000E+00-2.34196853E-09-2.34196853E-09 0.00000000E+00 0.00000000E+00
 3 61 0.00000000E+00 0.00000000E+00 0.00000000E+00 0.00000000E+00 0.00000000E+00
 3 62 0.00000000E+00 0.00000000E+00 2.71502988E-10 0.00000000E+00 0.00000000E+00
 3 63 0.00000000E+00 0.00000000E+00 0.00000000E+00 0.00000000E+00 0.00000000E+00
 3 64 0.00000000E+00 0.00000000E+00 0.00000000E+00 0.00000000E+00 0.00000000E+00
 3 65 0.00000000E+00 0.00000000E+00 0.00000000E+00 0.00000000E+00 0.00000000E+00
 3 66 0.00000000E+00 0.00000000E+00 0.00000000E+00 0.00000000E+00 0.00000000E+00
 3 67 0.00000000E+00 0.00000000E+00 0.00000000E+00 0.00000000E+00 0.00000000E+00
 3 68 0.00000000E+00
 4  1 0.00000000E+00 0.00000000E+00 0.00000000E+00 0.00000000E+00 0.00000000E+00
 4  2 0.00000000E+00 0.00000000E+00 0.00000000E+00 0.00000000E+00 0.00000000E+00
 4  3 0.00000000E+00 0.00000000E+00 0.00000000E+00 0.00000000E+00 9.95157212E-01
 4  4 0.00000000E+00 0.00000000E+00 4.97426529E-03 0.00000000E+00 0.00000000E+00
 4  5 8.81507233E-02 0.00000000E+00 0.00000000E+00-9.74951307E-02 0.00000000E+00
 4  6 0.00000000E+00 2.48007154E-02 0.00000000E+00 0.00000000E+00-2.80377149E-02
 4  7 0.00000000E+00 0.00000000E+00 2.48964028E-02 0.00000000E+00 0.00000000E+00
 4  8-6.83714517E-03 0.00000000E+00 0.00000000E+00 2.83380999E-03 0.00000000E+00
 4  9 0.00000000E+00-1.26488243E-03 0.00000000E+00 0.00000000E+00 3.50300252E-04
 4 10 0.00000000E+00 0.00000000E+00 0.00000000E+00 0.00000000E+00 0.00000000E+00
 4 11 0.00000000E+00 0.00000000E+00 0.00000000E+00 0.00000000E+00 0.00000000E+00
 4 12 0.00000000E+00 0.00000000E+00 0.00000000E+00 0.00000000E+00 0.00000000E+00
 4 13 0.00000000E+00 0.00000000E+00 0.00000000E+00 0.00000000E+00 0.00000000E+00
 4 14 0.00000000E+00 0.00000000E+00 0.00000000E+00 0.00000000E+00 0.00000000E+00
 4 15 0.00000000E+00 0.00000000E+00 0.00000000E+00 0.00000000E+00 0.00000000E+00
 4 16 0.00000000E+00 0.00000000E+00 0.00000000E+00 0.00000000E+00 0.00000000E+00
 4 17 0.00000000E+00 0.00000000E+00 0.00000000E+00 0.00000000E+00 0.00000000E+00
 4 18 0.00000000E+00 0.00000000E+00 0.00000000E+00 0.00000000E+00 0.00000000E+00
 4 19 0.00000000E+00 0.00000000E+00 0.00000000E+00 0.00000000E+00 0.00000000E+00
 4 20 0.00000000E+00 0.00000000E+00 0.00000000E+00 0.00000000E+00 0.00000000E+00
 4 21 0.00000000E+00 1.86354901E-08 0.00000000E+00-1.25010668E-08 0.00000000E+00
 4 22 0.00000000E+00 0.00000000E+00 0.00000000E+00-1.25010668E-08 0.00000000E+00
 4 23 0.00000000E+00-4.61618070E-09 0.00000000E+00 3.09662816E-09 0.00000000E+00
 4 24 0.00000000E+00 0.00000000E+00 0.00000000E+00 3.09662816E-09 0.00000000E+00
 4 25 0.00000000E+00 3.94858348E-09 0.00000000E+00-2.64879032E-09 0.00000000E+00
 4 26 0.00000000E+00 0.00000000E+00 0.00000000E+00-2.64879032E-09 0.00000000E+00
 4 27 0.00000000E+00-2.75439721E-09 0.00000000E+00 1.84770582E-09 0.00000000E+00
 4 28 0.00000000E+00 0.00000000E+00 0.00000000E+00 1.84770582E-09 0.00000000E+00
 4 29 0.00000000E+00 2.14147237E-09 0.00000000E+00-1.43654334E-09 0.00000000E+00
 4 30 0.00000000E+00 0.00000000E+00 0.00000000E+00-1.43654334E-09 0.00000000E+00
 4 31 0.00000000E+00-8.72982837E-10 0.00000000E+00 5.85614690E-10 0.00000000E+00
 4 32 0.00000000E+00 0.00000000E+00 0.00000000E+00 5.85614690E-10 0.00000000E+00
 4 33 0.00000000E+00 1.55631524E-10 0.00000000E+00-1.04400800E-10 0.00000000E+00
 4 34 0.00000000E+00 0.00000000E+00 0.00000000E+00-1.04400800E-10 0.00000000E+00
 4 35 0.00000000E+00 0.00000000E+00 0.00000000E+00 0.00000000E+00 0.00000000E+00
 4 36 0.00000000E+00 0.00000000E+00 0.00000000E+00 0.00000000E+00 0.00000000E+00
 4 37 0.00000000E+00 0.00000000E+00 0.00000000E+00 0.00000000E+00 0.00000000E+00
 4 38 0.00000000E+00 0.00000000E+00 0.00000000E+00 0.00000000E+00 0.00000000E+00
 4 39 0.00000000E+00 0.00000000E+00 0.00000000E+00 0.00000000E+00 0.00000000E+00
 4 40 0.00000000E+00 0.00000000E+00 0.00000000E+00 0.00000000E+00 0.00000000E+00
 4 41 0.00000000E+00 0.00000000E+00 0.00000000E+00 0.00000000E+00 0.00000000E+00
 4 42 0.00000000E+00 0.00000000E+00 0.00000000E+00 0.00000000E+00 0.00000000E+00
 4 43 0.00000000E+00 0.00000000E+00 0.00000000E+00 0.00000000E+00 0.00000000E+00
 4 44 0.00000000E+00 0.00000000E+00 0.00000000E+00 0.00000000E+00 0.00000000E+00
 4 45 0.00000000E+00 0.00000000E+00 0.00000000E+00 0.00000000E+00 0.00000000E+00
 4 46 0.00000000E+00 0.00000000E+00 0.00000000E+00 0.00000000E+00 0.00000000E+00
 4 47 0.00000000E+00 0.00000000E+00 0.00000000E+00 0.00000000E+00 0.00000000E+00
 4 48 0.00000000E+00 0.00000000E+00 0.00000000E+00 0.00000000E+00 0.00000000E+00
 4 49 0.00000000E+00 0.00000000E+00 0.00000000E+00 0.00000000E+00 0.00000000E+00
 4 50 0.00000000E+00 9.59503231E-08 0.00000000E+00 6.98251812E-08 0.00000000E+00
 4 51 0.00000000E+00 0.00000000E+00 0.00000000E+00 6.98251812E-08 0.00000000E+00
 4 52 0.00000000E+00-1.04690385E-07-1.04690385E-07 0.00000000E+00 0.00000000E+00
 4 53 0.00000000E+00 0.00000000E+00 0.00000000E+00 0.00000000E+00 1.78005721E-08
 4 54 0.00000000E+00 0.00000000E+00 3.48896345E-08 0.00000000E+00 2.48318545E-08
 4 55 0.00000000E+00 0.00000000E+00 0.00000000E+00 0.00000000E+00 2.48318545E-08
 4 56 0.00000000E+00 0.00000000E+00-3.80677122E-08-3.80677122E-08 0.00000000E+00
 4 57 0.00000000E+00 0.00000000E+00 0.00000000E+00 0.00000000E+00 0.00000000E+00
 4 58 7.45305985E-09 0.00000000E+00 0.00000000E+00 2.14644961E-09 0.00000000E+00
 4 59 1.63414813E-09 0.00000000E+00 0.00000000E+00 0.00000000E+00 0.00000000E+00
 4 60 1.63414813E-09 0.00000000E+00 0.00000000E+00-2.34196853E-09-2.34196853E-09
 4 61 0.00000000E+00 0.00000000E+00 0.00000000E+00 0.00000000E+00 0.00000000E+00
 4 62 0.00000000E+00 2.71502988E-10 0.00000000E+00 0.00000000E+00 0.00000000E+00
 4 63 0.00000000E+00 0.00000000E+00 0.00000000E+00 0.00000000E+00 0.00000000E+00
 4 64 0.00000000E+00 0.00000000E+00 0.00000000E+00 0.00000000E+00 0.00000000E+00
 4 65 0.00000000E+00 0.00000000E+00 0.00000000E+00 0.00000000E+00 0.00000000E+00
 4 66 0.00000000E+00 0.00000000E+00 0.00000000E+00 0.00000000E+00 0.00000000E+00
 4 67 0.00000000E+00 0.00000000E+00 0.00000000E+00 0.00000000E+00 0.00000000E+00
 4 68 0.00000000E+00
 5  1 0.00000000E+00 0.00000000E+00 0.00000000E+00 0.00000000E+00 0.00000000E+00
 5  2 0.00000000E+00 0.00000000E+00 0.00000000E+00 0.00000000E+00 0.00000000E+00
 5  3 0.00000000E+00 0.00000000E+00 0.00000000E+00 0.00000000E+00 0.00000000E+00
 5  4 9.95157212E-01 0.00000000E+00 0.00000000E+00 4.97426529E-03 0.00000000E+00
 5  5 0.00000000E+00 8.81507233E-02 0.00000000E+00 0.00000000E+00-9.74951307E-02
 5  6 0.00000000E+00 0.00000000E+00 2.48007154E-02 0.00000000E+00 0.00000000E+00
 5  7-2.80377149E-02 0.00000000E+00 0.00000000E+00 2.48964028E-02 0.00000000E+00
 5  8 0.00000000E+00-6.83714517E-03 0.00000000E+00 0.00000000E+00 2.83380999E-03
 5  9 0.00000000E+00 0.00000000E+00-1.26488243E-03 0.00000000E+00 0.00000000E+00
 5 10 3.50300252E-04 0.00000000E+00 0.00000000E+00 0.00000000E+00 0.00000000E+00
 5 11 0.00000000E+00 0.00000000E+00 0.00000000E+00 0.00000000E+00 0.00000000E+00
 5 12 0.00000000E+00 0.00000000E+00 0.00000000E+00 0.00000000E+00 0.00000000E+00
 5 13 0.00000000E+00 0.00000000E+00 0.00000000E+00 0.00000000E+00 0.00000000E+00
 5 14 0.00000000E+00 0.00000000E+00 0.00000000E+00 0.00000000E+00 0.00000000E+00
 5 15 0.00000000E+00 0.00000000E+00 0.00000000E+00 0.00000000E+00 0.00000000E+00
 5 16 0.00000000E+00 0.00000000E+00 0.00000000E+00 0.00000000E+00 0.00000000E+00
 5 17 0.00000000E+00 0.00000000E+00 0.00000000E+00 0.00000000E+00 0.00000000E+00
 5 18 0.00000000E+00 0.00000000E+00 0.00000000E+00 0.00000000E+00 0.00000000E+00
 5 19 0.00000000E+00 0.00000000E+00 0.00000000E+00 0.00000000E+00 0.00000000E+00
 5 20 0.00000000E+00 0.00000000E+00 0.00000000E+00 0.00000000E+00 0.00000000E+00
 5 21 0.00000000E+00 0.00000000E+00 1.86354901E-08 0.00000000E+00-1.25010668E-08
 5 22 0.00000000E+00-1.25010668E-08 0.00000000E+00 0.00000000E+00 0.00000000E+00
 5 23 0.00000000E+00 0.00000000E+00-4.61618070E-09 0.00000000E+00 3.09662816E-09
 5 24 0.00000000E+00 3.09662816E-09 0.00000000E+00 0.00000000E+00 0.00000000E+00
 5 25 0.00000000E+00 0.00000000E+00 3.94858348E-09 0.00000000E+00-2.64879032E-09
 5 26 0.00000000E+00-2.64879032E-09 0.00000000E+00 0.00000000E+00 0.00000000E+00
 5 27 0.00000000E+00 0.00000000E+00-2.75439721E-09 0.00000000E+00 1.84770582E-09
 5 28 0.00000000E+00 1.84770582E-09 0.00000000E+00 0.00000000E+00 0.00000000E+00
 5 29 0.00000000E+00 0.00000000E+00 2.14147237E-09 0.00000000E+00-1.43654334E-09
 5 30 0.00000000E+00-1.43654334E-09 0.00000000E+00 0.00000000E+00 0.00000000E+00
 5 31 0.00000000E+00 0.00000000E+00-8.72982837E-10 0.00000000E+00 5.85614690E-10
 5 32 0.00000000E+00 5.85614690E-10 0.00000000E+00 0.00000000E+00 0.00000000E+00
 5 33 0.00000000E+00 0.00000000E+00 1.55631524E-10 0.00000000E+00-1.04400800E-10
 5 34 0.00000000E+00-1.04400800E-10 0.00000000E+00 0.00000000E+00 0.00000000E+00
 5 35 0.00000000E+00 0.00000000E+00 0.00000000E+00 0.00000000E+00 0.00000000E+00
 5 36 0.00000000E+00 0.00000000E+00 0.00000000E+00 0.00000000E+00 0.00000000E+00
 5 37 0.00000000E+00 0.00000000E+00 0.00000000E+00 0.00000000E+00 0.00000000E+00
 5 38 0.00000000E+00 0.00000000E+00 0.00000000E+00 0.00000000E+00 0.00000000E+00
 5 39 0.00000000E+00 0.00000000E+00 0.00000000E+00 0.00000000E+00 0.00000000E+00
 5 40 0.00000000E+00 0.00000000E+00 0.00000000E+00 0.00000000E+00 0.00000000E+00
 5 41 0.00000000E+00 0.00000000E+00 0.00000000E+00 0.00000000E+00 0.00000000E+00
 5 42 0.00000000E+00 0.00000000E+00 0.00000000E+00 0.00000000E+00 0.00000000E+00