! Yb atom computed using the Sapporo-DKH3-QTP-2012 basis
!
! - Tests scalar relativistic methods with h functions
! - Test results obtained using GAMESS compiled for Linux64 using ifort
!   version 18.0.3 and run on an Intel Sandybridge E5-1650 processor.
!
! RESC: FINAL RHF ENERGY IS   -16055.3194943862 AFTER  23 ITERATIONS 
! DK1:  FINAL RHF ENERGY IS   -15747.5737209548 AFTER  22 ITERATIONS
! DK2:  FINAL RHF ENERGY IS   -14070.9123471525 AFTER  20 ITERATIONS
! DK3:  FINAL RHF ENERGY IS   -14895.4574154009 AFTER  20 ITERATIONS
! IOTC: FINAL RHF ENERGY IS   -14578.6781394327 AFTER  20 ITERATIONS
!
! LUT-IOTC and NESC are limited to g functions
!
 $contrl scftyp=rhf relwfn=dk ispher=1 maxit=200 $end
 $relwfn norder=2 $end
 $scf soscf=.t. diis=.f. shift=.t. damp=.t. $end
 $system mwords=25 $end
 $guess  guess=huckel $end
 $data
Ytterbium
Oh

Yb 70.0
S   9
1  23830793.0641506              0.0008976
2   3333682.5843318              0.0031757
3    628227.4844634              0.0090029
4    143474.7346443              0.0234285
5     37746.8510644              0.0584113
6     11138.7489344              0.1395027
7      3588.2484472              0.2937935
8      1276.9443415              0.4207887
9       479.0835224              0.2526063
S   4
1      4679.9892421             -0.0171890
2      1195.6209409             -0.0852513
3       173.7560017              0.5158985
4        73.5618098              0.5549514
S   3
1       125.9208662             -0.2657851
2        22.6248957              0.8766477
3        10.3009445              0.2722601
S   1
1         7.3701930              1.0000000
S   2
1        22.5474980             -0.5521650
2         5.4342150              1.3084190
S   1
1         2.4220700              1.0000000
S   1
1         0.9373220              1.0000000
S   1
1         0.3856250              1.0000000
S   1
1         0.1983780              1.0000000
S   1
1         0.0687120              1.0000000
S   1
1         0.0271900              1.0000000
P   8
1    276921.3374780              0.0004784
2     41326.8643376              0.0022348
3      9536.8707908              0.0094942
4      2839.3310576              0.0373996
5      1002.0287146              0.1260032
6       398.1179166              0.3053856
7       169.3152536              0.4552232
8        72.4364924              0.2534050
P   4
1       329.9665207             -0.0185121
2        52.9367139              0.2967150
3        26.0742703              0.5377377
4        12.5389352              0.2416532
P   1
1         8.6214110              1.0000000
P   1
1         3.9078190              1.0000000
P   1
1         1.2744610              1.0000000
P   1
1         0.7601240              1.0000000
P   1
1         0.3626930              1.0000000
P   1
1         0.1359800              1.0000000
P   1
1         0.0541010              1.0000000
D   7
1      3055.5837528              0.0014020
2       836.5724405              0.0114125
3       307.5228608              0.0573702
4       129.9296502              0.1881856
5        59.2069085              0.3785874
6        27.7179614              0.4204631
7        12.5252961              0.1588983
D   2
1        19.8078890              0.2420810
2         8.6993600              0.8056150
D   1
1         3.7499630              1.0000000
D   1
1         1.4008860              1.0000000
D   1
1         0.5701190              1.0000000
D   1
1         0.1957480              1.0000000
D   1
1         0.0634180              1.0000000
F   3
1       153.1158220              0.0390930
2        51.3553470              0.2518450
3        20.4423990              0.8113160
F   1
1         8.6798850              1.0000000
F   1
1         3.6120110              1.0000000
F   1
1         1.3652390              1.0000000
F   1
1         0.4436430              1.0000000
G   2
1        18.2247710              0.2912880
2         8.5783170              0.7781890
G   1
1         3.9037230              1.0000000
G   1
1         1.2165640              1.0000000
H   2
1        11.1236650              0.5573050
2         4.3065050              0.5995520

 $end
