! Yb atom computed using the Sapporo-DKH3-QZP-2012 basis
!
! - Tests scalar relativistic methods with h and i functions
! - Test results obtained using GAMESS compiled for Linux64 using ifort
!   version 18.0.3 and run on an Intel Sandybridge E5-1650 processor.
!
! RESC:  FINAL RHF ENERGY IS   -17410.9910953180
! DK1:   FINAL RHF ENERGY IS   -15455.6395869143
! DK2:   FINAL RHF ENERGY IS   -14456.9016988561
! DK3:   FINAL RHF ENERGY IS   -14534.5964519608
! IOTC:  FINAL RHF ENERGY IS   -14534.0113222236
!
! LUT-IOTC and NESC are limited to g functions
!
 $contrl scftyp=rhf relwfn=dk ispher=1 maxit=200 $end
 $relwfn norder=2 $end
 $scf rstrct=.t. soscf=.f. diis=.t. shift=.t. damp=.t. $end
 $system mwords=25 $end
 $guess  guess=moread norb=231 $end
 $data
Ytterbium
Oh

Yb 70.0
S   9
1  23830793.0641506              0.0008976
2   3333682.5843318              0.0031757
3    628227.4844634              0.0090029
4    143474.7346443              0.0234285
5     37746.8510644              0.0584113
6     11138.7489344              0.1395027
7      3588.2484472              0.2937935
8      1276.9443415              0.4207887
9       479.0835224              0.2526063
S   4
1      4679.9892421             -0.0171890
2      1195.6209409             -0.0852513
3       173.7560017              0.5158985
4        73.5618098              0.5549514
S   1
1        22.5010160              1.0000000
S   3
1       125.9208662             -0.2657851
2        22.6248957              0.8766477
3        10.3009445              0.2722601
S   1
1         6.6217270              1.0000000
S   1
1         5.3888170              1.0000000
S   1
1         2.4787970              1.0000000
S   1
1         0.9550440              1.0000000
S   1
1         0.4243320              1.0000000
S   1
1         0.2223160              1.0000000
S   1
1         0.0809640              1.0000000
S   1
1         0.0314500              1.0000000
S   1
1         0.0147300              1.0000000
P   8
1    276921.3374780              0.0004784
2     41326.8643376              0.0022348
3      9536.8707908              0.0094942
4      2839.3310576              0.0373996
5      1002.0287146              0.1260032
6       398.1179166              0.3053856
7       169.3152536              0.4552232
8        72.4364924              0.2534050
P   4
1       329.9665207             -0.0185121
2        52.9367139              0.2967150
3        26.0742703              0.5377377
4        12.5389352              0.2416532
P   1
1         9.8481620              1.0000000
P   1
1         8.2479150              1.0000000
P   1
1         3.9548670              1.0000000
P   1
1         1.5265110              1.0000000
P   1
1         1.1134810              1.0000000
P   1
1         0.5270790              1.0000000
P   1
1         0.2291260              1.0000000
P   1
1         0.1050670              1.0000000
P   1
1         0.0458940              1.0000000
D   7
1      3055.5837528              0.0014020
2       836.5724405              0.0114125
3       307.5228608              0.0573702
4       129.9296502              0.1881856
5        59.2069085              0.3785874
6        27.7179614              0.4204631
7        12.5252961              0.1588983
D   1
1        19.4167010              1.0000000
D   1
1         8.6233720              1.0000000
D   1
1         3.9378940              1.0000000
D   1
1         1.7265250              1.0000000
D   1
1         0.8137800              1.0000000
D   1
1         0.3540600              1.0000000
D   1
1         0.1406180              1.0000000
D   1
1         0.0519730              1.0000000
F   3
1       153.1129370              0.0390900
2        51.3533890              0.2518370
3        20.4409540              0.8113270
F   1
1         8.6755970              1.0000000
F   1
1         3.6131800              1.0000000
F   1
1         1.4729830              1.0000000
F   1
1         0.8000150              1.0000000
F   1
1         0.4252530              1.0000000
F   1
1         0.1363330              1.0000000
G   1
1        17.9891320              1.0000000
G   1
1         8.9199910              1.0000000
G   1
1         4.6049750              1.0000000
G   1
1         1.8740700              1.0000000
G   1
1         0.7363390              1.0000000
H   1
1        13.1444670              1.0000000
H   1
1         5.6164330              1.0000000
H   1
1         1.7668230              1.0000000
I   2
1        11.8269620              0.5997380
2         4.8042920              0.5629970

 $END
 
--- CLOSED SHELL ORBITALS --- GENERATED AT 14:57:11 30-AUG-2023    
Ytterbium                                                                       
E(RHF)=   -14228.6468216625, E(NUC)=    0.0000000000,   22 ITERS
 $VEC   
 1  1 1.04096554E+00 4.67596099E-01-1.62785060E+00 1.65928182E+00-9.74917581E-01
 1  2 7.01974150E-01-7.94573326E-02 2.76278010E-02-1.88665062E-02 1.04346306E-02
 1  3-3.62569073E-03 1.80166244E-03-6.18073797E-04 0.00000000E+00 0.00000000E+00
 1  4 0.00000000E+00 0.00000000E+00 0.00000000E+00 0.00000000E+00 0.00000000E+00
 1  5 0.00000000E+00 0.00000000E+00 0.00000000E+00 0.00000000E+00 0.00000000E+00
 1  6 0.00000000E+00 0.00000000E+00 0.00000000E+00 0.00000000E+00 0.00000000E+00
 1  7 0.00000000E+00 0.00000000E+00 0.00000000E+00 0.00000000E+00 0.00000000E+00
 1  8 0.00000000E+00 0.00000000E+00 0.00000000E+00 0.00000000E+00 0.00000000E+00
 1  9 0.00000000E+00 0.00000000E+00 0.00000000E+00 0.00000000E+00 0.00000000E+00
 1 10 0.00000000E+00 0.00000000E+00 0.00000000E+00 0.00000000E+00 0.00000000E+00
 1 11 0.00000000E+00 0.00000000E+00 0.00000000E+00 0.00000000E+00 0.00000000E+00
 1 12 0.00000000E+00 0.00000000E+00 0.00000000E+00 0.00000000E+00 0.00000000E+00
 1 13 0.00000000E+00 0.00000000E+00 0.00000000E+00 0.00000000E+00 0.00000000E+00
 1 14 0.00000000E+00 0.00000000E+00 0.00000000E+00 0.00000000E+00 0.00000000E+00
 1 15 0.00000000E+00 0.00000000E+00 0.00000000E+00 0.00000000E+00 0.00000000E+00
 1 16 0.00000000E+00 0.00000000E+00 0.00000000E+00 0.00000000E+00 0.00000000E+00
 1 17 0.00000000E+00 0.00000000E+00 0.00000000E+00 0.00000000E+00 0.00000000E+00
 1 18 0.00000000E+00 0.00000000E+00 0.00000000E+00 0.00000000E+00 0.00000000E+00
 1 19 0.00000000E+00 0.00000000E+00 0.00000000E+00 0.00000000E+00 0.00000000E+00
 1 20 0.00000000E+00 0.00000000E+00 0.00000000E+00 0.00000000E+00 0.00000000E+00
 1 21 0.00000000E+00 0.00000000E+00 0.00000000E+00 0.00000000E+00 0.00000000E+00
 1 22 0.00000000E+00 0.00000000E+00 0.00000000E+00 0.00000000E+00 0.00000000E+00
 1 23 0.00000000E+00 0.00000000E+00 0.00000000E+00 0.00000000E+00 0.00000000E+00
 1 24 0.00000000E+00 0.00000000E+00 0.00000000E+00 0.00000000E+00 0.00000000E+00
 1 25 0.00000000E+00 0.00000000E+00 0.00000000E+00 0.00000000E+00 0.00000000E+00
 1 26 0.00000000E+00 0.00000000E+00 0.00000000E+00 0.00000000E+00 0.00000000E+00
 1 27 0.00000000E+00 0.00000000E+00 0.00000000E+00 0.00000000E+00 0.00000000E+00
 1 28 0.00000000E+00 0.00000000E+00 0.00000000E+00 0.00000000E+00 0.00000000E+00
 1 29 0.00000000E+00 0.00000000E+00 0.00000000E+00 0.00000000E+00 0.00000000E+00
 1 30 0.00000000E+00 0.00000000E+00 0.00000000E+00 0.00000000E+00 0.00000000E+00
 1 31 0.00000000E+00 0.00000000E+00 0.00000000E+00 0.00000000E+00 0.00000000E+00
 1 32 0.00000000E+00 0.00000000E+00 0.00000000E+00 0.00000000E+00 0.00000000E+00
 1 33 0.00000000E+00 0.00000000E+00 0.00000000E+00 0.00000000E+00 0.00000000E+00
 1 34 0.00000000E+00 0.00000000E+00 0.00000000E+00 0.00000000E+00 0.00000000E+00
 1 35 1.00777260E-07 1.00777260E-07 1.00777260E-07 0.00000000E+00 0.00000000E+00
 1 36 0.00000000E+00 0.00000000E+00 0.00000000E+00 0.00000000E+00-8.85136822E-08
 1 37-8.85136822E-08-8.85136822E-08 0.00000000E+00 0.00000000E+00 0.00000000E+00
 1 38-1.37658589E-06-1.37658589E-06-1.37658589E-06 0.00000000E+00 0.00000000E+00
 1 39 0.00000000E+00 0.00000000E+00 0.00000000E+00 0.00000000E+00 1.20906924E-06
 1 40 1.20906924E-06 1.20906924E-06 0.00000000E+00 0.00000000E+00 0.00000000E+00
 1 41 8.24791223E-07 8.24791223E-07 8.24791223E-07 0.00000000E+00 0.00000000E+00
 1 42 0.00000000E+00 0.00000000E+00 0.00000000E+00 0.00000000E+00-7.24422434E-07
 1 43-7.24422434E-07-7.24422434E-07 0.00000000E+00 0.00000000E+00 0.00000000E+00
 1 44-2.67261446E-07-2.67261446E-07-2.67261446E-07 0.00000000E+00 0.00000000E+00
 1 45 0.00000000E+00 0.00000000E+00 0.00000000E+00 0.00000000E+00 2.34738418E-07
 1 46 2.34738418E-07 2.34738418E-07 0.00000000E+00 0.00000000E+00 0.00000000E+00
 1 47 8.46129804E-08 8.46129804E-08 8.46129804E-08 0.00000000E+00 0.00000000E+00
 1 48 0.00000000E+00 0.00000000E+00 0.00000000E+00 0.00000000E+00-7.43164324E-08
 1 49-7.43164324E-08-7.43164324E-08 0.00000000E+00 0.00000000E+00 0.00000000E+00
 1 50 0.00000000E+00 0.00000000E+00 0.00000000E+00 0.00000000E+00 0.00000000E+00
 1 51 0.00000000E+00 0.00000000E+00 0.00000000E+00 0.00000000E+00 0.00000000E+00
 1 52 0.00000000E+00 0.00000000E+00 0.00000000E+00 0.00000000E+00 0.00000000E+00
 1 53 0.00000000E+00 0.00000000E+00 0.00000000E+00 0.00000000E+00 0.00000000E+00
 1 54 0.00000000E+00 0.00000000E+00 0.00000000E+00 0.00000000E+00 0.00000000E+00
 1 55 0.00000000E+00 0.00000000E+00 0.00000000E+00 0.00000000E+00 0.00000000E+00
 1 56 0.00000000E+00 0.00000000E+00 0.00000000E+00 0.00000000E+00 0.00000000E+00
 1 57 0.00000000E+00 0.00000000E+00 0.00000000E+00 0.00000000E+00 0.00000000E+00
 1 58 0.00000000E+00 0.00000000E+00 0.00000000E+00 0.00000000E+00 0.00000000E+00
 1 59 0.00000000E+00 0.00000000E+00 0.00000000E+00 0.00000000E+00 0.00000000E+00
 1 60 0.00000000E+00 0.00000000E+00 0.00000000E+00 0.00000000E+00 0.00000000E+00
 1 61 0.00000000E+00 0.00000000E+00 0.00000000E+00 0.00000000E+00 0.00000000E+00
 1 62 0.00000000E+00 0.00000000E+00 0.00000000E+00-7.63148030E-08-7.63148030E-08
 1 63-7.63148030E-08 0.00000000E+00 0.00000000E+00 0.00000000E+00 0.00000000E+00
 1 64 0.00000000E+00 0.00000000E+00 9.96352651E-08 9.96352651E-08 9.96352651E-08
 1 65 9.96352651E-08 9.96352651E-08 9.96352651E-08 0.00000000E+00 0.00000000E+00
 1 66 0.00000000E+00 0.00000000E+00 0.00000000E+00 0.00000000E+00 0.00000000E+00
 1 67 0.00000000E+00 0.00000000E+00 0.00000000E+00 0.00000000E+00 0.00000000E+00
 1 68-3.50042625E-07
 2  1 4.02080235E-01-7.86168045E-01-9.56379793E-01 9.76626754E-01-7.26780644E-01
 2  2 5.80631966E-01-8.78654951E-02 3.64336665E-02-2.65412850E-02 1.50472052E-02
 2  3-5.32001043E-03 2.65958910E-03-9.14238977E-04 0.00000000E+00 0.00000000E+00
 2  4 0.00000000E+00 0.00000000E+00 0.00000000E+00 0.00000000E+00 0.00000000E+00
 2  5 0.00000000E+00 0.00000000E+00 0.00000000E+00 0.00000000E+00 0.00000000E+00
 2  6 0.00000000E+00 0.00000000E+00 0.00000000E+00 0.00000000E+00 0.00000000E+00
 2  7 0.00000000E+00 0.00000000E+00 0.00000000E+00 0.00000000E+00 0.00000000E+00
 2  8 0.00000000E+00 0.00000000E+00 0.00000000E+00 0.00000000E+00 0.00000000E+00
 2  9 0.00000000E+00 0.00000000E+00 0.00000000E+00 0.00000000E+00 0.00000000E+00
 2 10 0.00000000E+00 0.00000000E+00 0.00000000E+00 0.00000000E+00 0.00000000E+00
 2 11 0.00000000E+00 0.00000000E+00 0.00000000E+00 0.00000000E+00 0.00000000E+00
 2 12 0.00000000E+00 0.00000000E+00 0.00000000E+00 0.00000000E+00 0.00000000E+00
 2 13 0.00000000E+00 0.00000000E+00 0.00000000E+00 0.00000000E+00 0.00000000E+00
 2 14 0.00000000E+00 0.00000000E+00 0.00000000E+00 0.00000000E+00 0.00000000E+00
 2 15 0.00000000E+00 0.00000000E+00 0.00000000E+00 0.00000000E+00 0.00000000E+00
 2 16 0.00000000E+00 0.00000000E+00 0.00000000E+00 0.00000000E+00 0.00000000E+00
 2 17 0.00000000E+00 0.00000000E+00 0.00000000E+00 0.00000000E+00 0.00000000E+00
 2 18 0.00000000E+00 0.00000000E+00 0.00000000E+00 0.00000000E+00 0.00000000E+00
 2 19 0.00000000E+00 0.00000000E+00 0.00000000E+00 0.00000000E+00 0.00000000E+00
 2 20 0.00000000E+00 0.00000000E+00 0.00000000E+00 0.00000000E+00 0.00000000E+00
 2 21 0.00000000E+00 0.00000000E+00 0.00000000E+00 0.00000000E+00 0.00000000E+00
 2 22 0.00000000E+00 0.00000000E+00 0.00000000E+00 0.00000000E+00 0.00000000E+00
 2 23 0.00000000E+00 0.00000000E+00 0.00000000E+00 0.00000000E+00 0.00000000E+00
 2 24 0.00000000E+00 0.00000000E+00 0.00000000E+00 0.00000000E+00 0.00000000E+00
 2 25 0.00000000E+00 0.00000000E+00 0.00000000E+00 0.00000000E+00 0.00000000E+00
 2 26 0.00000000E+00 0.00000000E+00 0.00000000E+00 0.00000000E+00 0.00000000E+00
 2 27 0.00000000E+00 0.00000000E+00 0.00000000E+00 0.00000000E+00 0.00000000E+00
 2 28 0.00000000E+00 0.00000000E+00 0.00000000E+00 0.00000000E+00 0.00000000E+00
 2 29 0.00000000E+00 0.00000000E+00 0.00000000E+00 0.00000000E+00 0.00000000E+00
 2 30 0.00000000E+00 0.00000000E+00 0.00000000E+00 0.00000000E+00 0.00000000E+00
 2 31 0.00000000E+00 0.00000000E+00 0.00000000E+00 0.00000000E+00 0.00000000E+00
 2 32 0.00000000E+00 0.00000000E+00 0.00000000E+00 0.00000000E+00 0.00000000E+00
 2 33 0.00000000E+00 0.00000000E+00 0.00000000E+00 0.00000000E+00 0.00000000E+00
 2 34 0.00000000E+00 0.00000000E+00 0.00000000E+00 0.00000000E+00 0.00000000E+00
 2 35 4.34767743E-06 4.34767743E-06 4.34767743E-06 0.00000000E+00 0.00000000E+00
 2 36 0.00000000E+00 0.00000000E+00 0.00000000E+00 0.00000000E+00-3.81860885E-06
 2 37-3.81860885E-06-3.81860885E-06 0.00000000E+00 0.00000000E+00 0.00000000E+00
 2 38-6.97839210E-06-6.97839210E-06-6.97839210E-06 0.00000000E+00 0.00000000E+00
 2 39 0.00000000E+00 0.00000000E+00 0.00000000E+00 0.00000000E+00 6.12919203E-06
 2 40 6.12919203E-06 6.12919203E-06 0.00000000E+00 0.00000000E+00 0.00000000E+00
 2 41 5.20942026E-06 5.20942026E-06 5.20942026E-06 0.00000000E+00 0.00000000E+00
 2 42 0.00000000E+00 0.00000000E+00 0.00000000E+00 0.00000000E+00-4.57548625E-06
 2 43-4.57548625E-06-4.57548625E-06 0.00000000E+00 0.00000000E+00 0.00000000E+00
 2 44-2.03081501E-06-2.03081501E-06-2.03081501E-06 0.00000000E+00 0.00000000E+00
 2 45 0.00000000E+00 0.00000000E+00 0.00000000E+00 0.00000000E+00 1.78368527E-06
 2 46 1.78368527E-06 1.78368527E-06 0.00000000E+00 0.00000000E+00 0.00000000E+00
 2 47 6.93559623E-07 6.93559623E-07 6.93559623E-07 0.00000000E+00 0.00000000E+00
 2 48 0.00000000E+00 0.00000000E+00 0.00000000E+00 0.00000000E+00-6.09160398E-07
 2 49-6.09160398E-07-6.09160398E-07 0.00000000E+00 0.00000000E+00 0.00000000E+00
 2 50 0.00000000E+00 0.00000000E+00 0.00000000E+00 0.00000000E+00 0.00000000E+00
 2 51 0.00000000E+00 0.00000000E+00 0.00000000E+00 0.00000000E+00 0.00000000E+00
 2 52 0.00000000E+00 0.00000000E+00 0.00000000E+00 0.00000000E+00 0.00000000E+00
 2 53 0.00000000E+00 0.00000000E+00 0.00000000E+00 0.00000000E+00 0.00000000E+00
 2 54 0.00000000E+00 0.00000000E+00 0.00000000E+00 0.00000000E+00 0.00000000E+00
 2 55 0.00000000E+00 0.00000000E+00 0.00000000E+00 0.00000000E+00 0.00000000E+00
 2 56 0.00000000E+00 0.00000000E+00 0.00000000E+00 0.00000000E+00 0.00000000E+00
 2 57 0.00000000E+00 0.00000000E+00 0.00000000E+00 0.00000000E+00 0.00000000E+00
 2 58 0.00000000E+00 0.00000000E+00 0.00000000E+00 0.00000000E+00 0.00000000E+00
 2 59 0.00000000E+00 0.00000000E+00 0.00000000E+00 0.00000000E+00 0.00000000E+00
 2 60 0.00000000E+00 0.00000000E+00 0.00000000E+00 0.00000000E+00 0.00000000E+00
 2 61 0.00000000E+00 0.00000000E+00 0.00000000E+00 0.00000000E+00 0.00000000E+00
 2 62 0.00000000E+00 0.00000000E+00 0.00000000E+00-5.58178404E-06-5.58178404E-06
 2 63-5.58178404E-06 0.00000000E+00 0.00000000E+00 0.00000000E+00 0.00000000E+00
 2 64 0.00000000E+00 0.00000000E+00 7.28747912E-06 7.28747912E-06 7.28747912E-06
 2 65 7.28747912E-06 7.28747912E-06 7.28747912E-06 0.00000000E+00 0.00000000E+00
 2 66 0.00000000E+00 0.00000000E+00 0.00000000E+00 0.00000000E+00 0.00000000E+00
 2 67 0.00000000E+00 0.00000000E+00 0.00000000E+00 0.00000000E+00 0.00000000E+00
 2 68-2.56026650E-05
 3  1 0.00000000E+00 0.00000000E+00 0.00000000E+00 0.00000000E+00 0.00000000E+00
 3  2 0.00000000E+00 0.00000000E+00 0.00000000E+00 0.00000000E+00 0.00000000E+00
 3  3 0.00000000E+00 0.00000000E+00 0.00000000E+00 9.91198214E-01 0.00000000E+00
 3  4 0.00000000E+00 1.92649520E-02 0.00000000E+00 0.00000000E+00 1.56047908E-02
 3  5 0.00000000E+00 0.00000000E+00-2.20527603E-02 0.00000000E+00 0.00000000E+00
 3  6 6.41396269E-03 0.00000000E+00 0.00000000E+00-7.35331626E-03 0.00000000E+00
 3  7 0.00000000E+00 6.51941969E-03 0.00000000E+00 0.00000000E+00-1.78244429E-03
 3  8 0.00000000E+00 0.00000000E+00 7.35416894E-04 0.00000000E+00 0.00000000E+00
 3  9-3.27109385E-04 0.00000000E+00 0.00000000E+00 9.03288830E-05 0.00000000E+00
 3 10 0.00000000E+00 0.00000000E+00 0.00000000E+00 0.00000000E+00 0.00000000E+00
 3 11 0.00000000E+00 0.00000000E+00 0.00000000E+00 0.00000000E+00 0.00000000E+00
 3 12 0.00000000E+00 0.00000000E+00 0.00000000E+00 0.00000000E+00 0.00000000E+00
 3 13 0.00000000E+00 0.00000000E+00 0.00000000E+00 0.00000000E+00 0.00000000E+00
 3 14 0.00000000E+00 0.00000000E+00 0.00000000E+00 0.00000000E+00 0.00000000E+00
 3 15 0.00000000E+00 0.00000000E+00 0.00000000E+00 0.00000000E+00 0.00000000E+00
 3 16 0.00000000E+00 0.00000000E+00 0.00000000E+00 0.00000000E+00 0.00000000E+00
 3 17 0.00000000E+00 0.00000000E+00 0.00000000E+00 0.00000000E+00 0.00000000E+00
 3 18 0.00000000E+00 0.00000000E+00 0.00000000E+00 0.00000000E+00 0.00000000E+00
 3 19 0.00000000E+00 0.00000000E+00 0.00000000E+00 0.00000000E+00 0.00000000E+00
 3 20 0.00000000E+00 0.00000000E+00 0.00000000E+00 0.00000000E+00 0.00000000E+00
 3 21-8.45553374E-08 0.00000000E+00 0.00000000E+00 0.00000000E+00 0.00000000E+00
 3 22 5.67214447E-08 0.00000000E+00 5.67214447E-08 0.00000000E+00 0.00000000E+00
 3 23 2.41846033E-07 0.00000000E+00 0.00000000E+00 0.00000000E+00 0.00000000E+00
 3 24-1.62235251E-07 0.00000000E+00-1.62235251E-07 0.00000000E+00 0.00000000E+00
 3 25-1.70460593E-07 0.00000000E+00 0.00000000E+00 0.00000000E+00 0.00000000E+00
 3 26 1.14348442E-07 0.00000000E+00 1.14348442E-07 0.00000000E+00 0.00000000E+00
 3 27 1.39359666E-07 0.00000000E+00 0.00000000E+00 0.00000000E+00 0.00000000E+00
 3 28-9.34853057E-08 0.00000000E+00-9.34853057E-08 0.00000000E+00 0.00000000E+00
 3 29-1.12575114E-07 0.00000000E+00 0.00000000E+00 0.00000000E+00 0.00000000E+00
 3 30 7.55176824E-08 0.00000000E+00 7.55176824E-08 0.00000000E+00 0.00000000E+00
 3 31 4.64921355E-08 0.00000000E+00 0.00000000E+00 0.00000000E+00 0.00000000E+00
 3 32-3.11878726E-08 0.00000000E+00-3.11878726E-08 0.00000000E+00 0.00000000E+00
 3 33-8.37818686E-09 0.00000000E+00 0.00000000E+00 0.00000000E+00 0.00000000E+00
 3 34 5.62025860E-09 0.00000000E+00 5.62025860E-09 0.00000000E+00 0.00000000E+00
 3 35 0.00000000E+00 0.00000000E+00 0.00000000E+00 0.00000000E+00 0.00000000E+00
 3 36 0.00000000E+00 0.00000000E+00 0.00000000E+00 0.00000000E+00 0.00000000E+00
 3 37 0.00000000E+00 0.00000000E+00 0.00000000E+00 0.00000000E+00 0.00000000E+00
 3 38 0.00000000E+00 0.00000000E+00 0.00000000E+00 0.00000000E+00 0.00000000E+00
 3 39 0.00000000E+00 0.00000000E+00 0.00000000E+00 0.00000000E+00 0.00000000E+00
 3 40 0.00000000E+00 0.00000000E+00 0.00000000E+00 0.00000000E+00 0.00000000E+00
 3 41 0.00000000E+00 0.00000000E+00 0.00000000E+00 0.00000000E+00 0.00000000E+00
 3 42 0.00000000E+00 0.00000000E+00 0.00000000E+00 0.00000000E+00 0.00000000E+00
 3 43 0.00000000E+00 0.00000000E+00 0.00000000E+00 0.00000000E+00 0.00000000E+00
 3 44 0.00000000E+00 0.00000000E+00 0.00000000E+00 0.00000000E+00 0.00000000E+00
 3 45 0.00000000E+00 0.00000000E+00 0.00000000E+00 0.00000000E+00 0.00000000E+00
 3 46 0.00000000E+00 0.00000000E+00 0.00000000E+00 0.00000000E+00 0.00000000E+00
 3 47 0.00000000E+00 0.00000000E+00 0.00000000E+00 0.00000000E+00 0.00000000E+00
 3 48 0.00000000E+00 0.00000000E+00 0.00000000E+00 0.00000000E+00 0.00000000E+00
 3 49 0.00000000E+00 0.00000000E+00 0.00000000E+00 0.00000000E+00 0.00000000E+00
 3 50 1.17716769E-07 0.00000000E+00 0.00000000E+00 0.00000000E+00 0.00000000E+00
 3 51 8.52642225E-08 0.00000000E+00 8.52642225E-08 0.00000000E+00-1.28439525E-07
 3 52-1.28439525E-07 0.00000000E+00 0.00000000E+00 0.00000000E+00 0.00000000E+00
 3 53 0.00000000E+00 0.00000000E+00 0.00000000E+00 0.00000000E+00 0.00000000E+00
 3 54 2.25428556E-08 3.71093073E-08 0.00000000E+00 0.00000000E+00 0.00000000E+00
 3 55 0.00000000E+00 2.56438323E-08 0.00000000E+00 2.56438323E-08 0.00000000E+00
 3 56-4.04895737E-08-4.04895737E-08 0.00000000E+00 0.00000000E+00 0.00000000E+00
 3 57 0.00000000E+00 0.00000000E+00 0.00000000E+00 0.00000000E+00 0.00000000E+00
 3 58 0.00000000E+00 9.27599152E-09 2.75066084E-09 0.00000000E+00 0.00000000E+00
 3 59 0.00000000E+00 0.00000000E+00 2.29568626E-09 0.00000000E+00 2.29568626E-09
 3 60 0.00000000E+00-3.00121702E-09-3.00121702E-09 0.00000000E+00 0.00000000E+00
 3 61 0.00000000E+00 0.00000000E+00 0.00000000E+00 0.00000000E+00 0.00000000E+00
 3 62 0.00000000E+00 0.00000000E+00 0.00000000E+00 0.00000000E+00 0.00000000E+00
 3 63 0.00000000E+00 0.00000000E+00 0.00000000E+00 0.00000000E+00 0.00000000E+00
 3 64 0.00000000E+00 0.00000000E+00 0.00000000E+00 0.00000000E+00 0.00000000E+00
 3 65 0.00000000E+00 0.00000000E+00 0.00000000E+00 0.00000000E+00 0.00000000E+00
 3 66 0.00000000E+00 0.00000000E+00 0.00000000E+00 0.00000000E+00 0.00000000E+00
 3 67 0.00000000E+00 0.00000000E+00 0.00000000E+00 0.00000000E+00 0.00000000E+00
 3 68 0.00000000E+00
 4  1 0.00000000E+00 0.00000000E+00 0.00000000E+00 0.00000000E+00 0.00000000E+00
 4  2 0.00000000E+00 0.00000000E+00 0.00000000E+00 0.00000000E+00 0.00000000E+00
 4  3 0.00000000E+00 0.00000000E+00 0.00000000E+00 0.00000000E+00 9.91198214E-01
 4  4 0.00000000E+00 0.00000000E+00 1.92649520E-02 0.00000000E+00 0.00000000E+00
 4  5 1.56047908E-02 0.00000000E+00 0.00000000E+00-2.20527603E-02 0.00000000E+00
 4  6 0.00000000E+00 6.41396269E-03 0.00000000E+00 0.00000000E+00-7.35331626E-03
 4  7 0.00000000E+00 0.00000000E+00 6.51941969E-03 0.00000000E+00 0.00000000E+00
 4  8-1.78244429E-03 0.00000000E+00 0.00000000E+00 7.35416894E-04 0.00000000E+00
 4  9 0.00000000E+00-3.27109385E-04 0.00000000E+00 0.00000000E+00 9.03288830E-05
 4 10 0.00000000E+00 0.00000000E+00 0.00000000E+00 0.00000000E+00 0.00000000E+00
 4 11 0.00000000E+00 0.00000000E+00 0.00000000E+00 0.00000000E+00 0.00000000E+00
 4 12 0.00000000E+00 0.00000000E+00 0.00000000E+00 0.00000000E+00 0.00000000E+00
 4 13 0.00000000E+00 0.00000000E+00 0.00000000E+00 0.00000000E+00 0.00000000E+00
 4 14 0.00000000E+00 0.00000000E+00 0.00000000E+00 0.00000000E+00 0.00000000E+00
 4 15 0.00000000E+00 0.00000000E+00 0.00000000E+00 0.00000000E+00 0.00000000E+00
 4 16 0.00000000E+00 0.00000000E+00 0.00000000E+00 0.00000000E+00 0.00000000E+00
 4 17 0.00000000E+00 0.00000000E+00 0.00000000E+00 0.00000000E+00 0.00000000E+00
 4 18 0.00000000E+00 0.00000000E+00 0.00000000E+00 0.00000000E+00 0.00000000E+00
 4 19 0.00000000E+00 0.00000000E+00 0.00000000E+00 0.00000000E+00 0.00000000E+00
 4 20 0.00000000E+00 0.00000000E+00 0.00000000E+00 0.00000000E+00 0.00000000E+00
 4 21 0.00000000E+00-8.45553374E-08 0.00000000E+00 5.67214447E-08 0.00000000E+00
 4 22 0.00000000E+00 0.00000000E+00 0.00000000E+00 5.67214447E-08 0.00000000E+00
 4 23 0.00000000E+00 2.41846033E-07 0.00000000E+00-1.62235251E-07 0.00000000E+00
 4 24 0.00000000E+00 0.00000000E+00 0.00000000E+00-1.62235251E-07 0.00000000E+00
 4 25 0.00000000E+00-1.70460593E-07 0.00000000E+00 1.14348442E-07 0.00000000E+00
 4 26 0.00000000E+00 0.00000000E+00 0.00000000E+00 1.14348442E-07 0.00000000E+00
 4 27 0.00000000E+00 1.39359666E-07 0.00000000E+00-9.34853057E-08 0.00000000E+00
 4 28 0.00000000E+00 0.00000000E+00 0.00000000E+00-9.34853057E-08 0.00000000E+00
 4 29 0.00000000E+00-1.12575114E-07 0.00000000E+00 7.55176824E-08 0.00000000E+00
 4 30 0.00000000E+00 0.00000000E+00 0.00000000E+00 7.55176824E-08 0.00000000E+00
 4 31 0.00000000E+00 4.64921355E-08 0.00000000E+00-3.11878726E-08 0.00000000E+00
 4 32 0.00000000E+00 0.00000000E+00 0.00000000E+00-3.11878726E-08 0.00000000E+00
 4 33 0.00000000E+00-8.37818686E-09 0.00000000E+00 5.62025860E-09 0.00000000E+00
 4 34 0.00000000E+00 0.00000000E+00 0.00000000E+00 5.62025860E-09 0.00000000E+00
 4 35 0.00000000E+00 0.00000000E+00 0.00000000E+00 0.00000000E+00 0.00000000E+00
 4 36 0.00000000E+00 0.00000000E+00 0.00000000E+00 0.00000000E+00 0.00000000E+00
 4 37 0.00000000E+00 0.00000000E+00 0.00000000E+00 0.00000000E+00 0.00000000E+00
 4 38 0.00000000E+00 0.00000000E+00 0.00000000E+00 0.00000000E+00 0.00000000E+00
 4 39 0.00000000E+00 0.00000000E+00 0.00000000E+00 0.00000000E+00 0.00000000E+00
 4 40 0.00000000E+00 0.00000000E+00 0.00000000E+00 0.00000000E+00 0.00000000E+00
 4 41 0.00000000E+00 0.00000000E+00 0.00000000E+00 0.00000000E+00 0.00000000E+00
 4 42 0.00000000E+00 0.00000000E+00 0.00000000E+00 0.00000000E+00 0.00000000E+00
 4 43 0.00000000E+00 0.00000000E+00 0.00000000E+00 0.00000000E+00 0.00000000E+00
 4 44 0.00000000E+00 0.00000000E+00 0.00000000E+00 0.00000000E+00 0.00000000E+00
 4 45 0.00000000E+00 0.00000000E+00 0.00000000E+00 0.00000000E+00 0.00000000E+00
 4 46 0.00000000E+00 0.00000000E+00 0.00000000E+00 0.00000000E+00 0.00000000E+00
 4 47 0.00000000E+00 0.00000000E+00 0.00000000E+00 0.00000000E+00 0.00000000E+00
 4 48 0.00000000E+00 0.00000000E+00 0.00000000E+00 0.00000000E+00 0.00000000E+00
 4 49 0.00000000E+00 0.00000000E+00 0.00000000E+00 0.00000000E+00 0.00000000E+00
 4 50 0.00000000E+00 1.17716769E-07 0.00000000E+00 8.52642225E-08 0.00000000E+00
 4 51 0.00000000E+00 0.00000000E+00 0.00000000E+00 8.52642225E-08 0.00000000E+00
 4 52 0.00000000E+00-1.28439525E-07-1.28439525E-07 0.00000000E+00 0.00000000E+00
 4 53 0.00000000E+00 0.00000000E+00 0.00000000E+00 0.00000000E+00 2.25428556E-08
 4 54 0.00000000E+00 0.00000000E+00 3.71093073E-08 0.00000000E+00 2.56438323E-08
 4 55 0.00000000E+00 0.00000000E+00 0.00000000E+00 0.00000000E+00 2.56438323E-08
 4 56 0.00000000E+00 0.00000000E+00-4.04895737E-08-4.04895737E-08 0.00000000E+00
 4 57 0.00000000E+00 0.00000000E+00 0.00000000E+00 0.00000000E+00 0.00000000E+00
 4 58 9.27599152E-09 0.00000000E+00 0.00000000E+00 2.75066084E-09 0.00000000E+00
 4 59 2.29568626E-09 0.00000000E+00 0.00000000E+00 0.00000000E+00 0.00000000E+00
 4 60 2.29568626E-09 0.00000000E+00 0.00000000E+00-3.00121702E-09-3.00121702E-09
 4 61 0.00000000E+00 0.00000000E+00 0.00000000E+00 0.00000000E+00 0.00000000E+00
 4 62 0.00000000E+00 0.00000000E+00 0.00000000E+00 0.00000000E+00 0.00000000E+00
 4 63 0.00000000E+00 0.00000000E+00 0.00000000E+00 0.00000000E+00 0.00000000E+00
 4 64 0.00000000E+00 0.00000000E+00 0.00000000E+00 0.00000000E+00 0.00000000E+00
 4 65 0.00000000E+00 0.00000000E+00 0.00000000E+00 0.00000000E+00 0.00000000E+00
 4 66 0.00000000E+00 0.00000000E+00 0.00000000E+00 0.00000000E+00 0.00000000E+00
 4 67 0.00000000E+00 0.00000000E+00 0.00000000E+00 0.00000000E+00 0.00000000E+00
 4 68 0.00000000E+00
 5  1 0.00000000E+00 0.00000000E+00 0.00000000E+00 0.00000000E+00 0.00000000E+00
 5  2 0.00000000E+00 0.00000000E+00 0.00000000E+00 0.00000000E+00 0.00000000E+00
 5  3 0.00000000E+00 0.00000000E+00 0.00000000E+00 0.00000000E+00 0.00000000E+00
 5  4 9.91198214E-01 0.00000000E+00 0.00000000E+00 1.92649520E-02 0.00000000E+00
 5  5 0.00000000E+00 1.56047908E-02 0.00000000E+00 0.00000000E+00-2.20527603E-02
 5  6 0.00000000E+00 0.00000000E+00 6.41396269E-03 0.00000000E+00 0.00000000E+00
 5  7-7.35331626E-03 0.00000000E+00 0.00000000E+00 6.51941969E-03 0.00000000E+00
 5  8 0.00000000E+00-1.78244429E-03 0.00000000E+00 0.00000000E+00 7.35416894E-04
 5  9 0.00000000E+00 0.00000000E+00-3.27109385E-04 0.00000000E+00 0.00000000E+00
 5 10 9.03288830E-05 0.00000000E+00 0.00000000E+00 0.00000000E+00 0.00000000E+00
 5 11 0.00000000E+00 0.00000000E+00 0.00000000E+00 0.00000000E+00 0.00000000E+00
 5 12 0.00000000E+00 0.00000000E+00 0.00000000E+00 0.00000000E+00 0.00000000E+00
 5 13 0.00000000E+00 0.00000000E+00 0.00000000E+00 0.00000000E+00 0.00000000E+00
 5 14 0.00000000E+00 0.00000000E+00 0.00000000E+00 0.00000000E+00 0.00000000E+00
 5 15 0.00000000E+00 0.00000000E+00 0.00000000E+00 0.00000000E+00 0.00000000E+00
 5 16 0.00000000E+00 0.00000000E+00 0.00000000E+00 0.00000000E+00 0.00000000E+00
 5 17 0.00000000E+00 0.00000000E+00 0.00000000E+00 0.00000000E+00 0.00000000E+00
 5 18 0.00000000E+00 0.00000000E+00 0.00000000E+00 0.00000000E+00 0.00000000E+00
 5 19 0.00000000E+00 0.00000000E+00 0.00000000E+00 0.00000000E+00 0.00000000E+00
 5 20 0.00000000E+00 0.00000000E+00 0.00000000E+00 0.00000000E+00 0.00000000E+00
 5 21 0.00000000E+00 0.00000000E+00-8.45553374E-08 0.00000000E+00 5.67214447E-08
 5 22 0.00000000E+00 5.67214447E-08 0.00000000E+00 0.00000000E+00 0.00000000E+00
 5 23 0.00000000E+00 0.00000000E+00 2.41846033E-07 0.00000000E+00-1.62235251E-07
 5 24 0.00000000E+00-1.62235251E-07 0.00000000E+00 0.00000000E+00 0.00000000E+00
 5 25 0.00000000E+00 0.00000000E+00-1.70460593E-07 0.00000000E+00 1.14348442E-07
 5 26 0.00000000E+00 1.14348442E-07 0.00000000E+00 0.00000000E+00 0.00000000E+00
 5 27 0.00000000E+00 0.00000000E+00 1.39359666E-07 0.00000000E+00-9.34853057E-08
 5 28 0.00000000E+00-9.34853057E-08 0.00000000E+00 0.00000000E+00 0.00000000E+00
 5 29 0.00000000E+00 0.00000000E+00-1.12575114E-07 0.00000000E+00 7.55176824E-08
 5 30 0.00000000E+00 7.55176824E-08 0.00000000E+00 0.00000000E+00 0.00000000E+00
 5 31 0.00000000E+00 0.00000000E+00 4.64921355E-08 0.00000000E+00-3.11878726E-08
 5 32 0.00000000E+00-3.11878726E-08 0.00000000E+00 0.00000000E+00 0.00000000E+00
 5 33 0.00000000E+00 0.00000000E+00-8.37818686E-09 0.00000000E+00 5.62025860E-09
 5 34 0.00000000E+00 5.62025860E-09 0.00000000E+00 0.00000000E+00 0.00000000E+00
 5 35 0.00000000E+00 0.00000000E+00 0.00000000E+00 0.00000000E+00 0.00000000E+00
 5 36 0.00000000E+00 0.00000000E+00 0.00000000E+00 0.00000000E+00 0.00000000E+00
 5 37 0.00000000E+00 0.00000000E+00 0.00000000E+00 0.00000000E+00 0.00000000E+00
 5 38 0.00000000E+00 0.00000000E+00 0.00000000E+00 0.00000000E+00 0.00000000E+00
 5 39 0.00000000E+00 0.00000000E+00 0.00000000E+00 0.00000000E+00 0.00000000E+00
 5 40 0.00000000E+00 0.00000000E+00 0.00000000E+00 0.00000000E+00 0.00000000E+00
 5 41 0.00000000E+00 0.00000000E+00 0.00000000E+00 0.00000000E+00 0.00000000E+00
 5 42 0.00000000E+00 0.00000000E+00 0.00000000E+00 0.00000000E+00 0.00000000E+00