! EXAM
!  2nd order XMC-QDPT calculation, using RISM-SCF-cSED.
!  The active orbitals are two pi orbitals, one n orbitals, and one pi* orbital.
!  First, three state-average CASSCF calculation is performed. 
!  The second order perturbation theory correction to the MCSCF energy is 
!  then obtained. 
!  The solvation structure is determined for S0 state.  
!
!  XMC-QDPT energies: 
!      STATE  1  (EQ )         (a.u.)    -247.79532642
!      STATE  2  (NEQ)         (a.u.)    -247.56175153
!      STATE  3  (NEQ)         (a.u.)    -247.54414305
!
!  The energy differences correspond to the absorption energy/
!
 $CONTRL MULT=1 RUNTYP=ENERGY scftyp=MCSCF icharg=0 MPLEVL=2
         MAXIT=190 ISPHER=1 $END
 $GUESS  GUESS=MOREAD NORB=125 NORDER=0 $END
 $MCSCF  CISTEP=ALDET FORS=.T. $END
 $DET    GROUP=C1 NCORE=17 NACT=4 NELS=6 STSYM=A NSTATE=5
         WSTATE(1)=1.0,1.0,1.0 $END
 $MRMP   MRPT=MCQDPT $END
 $MCQDPT STSYM=A KSTATE(1)=1,1,1 WSTATE(1)=1.0,1.0,1.0
         EDSHFT(1)=0.02,0.1 $END
 $BASIS  GBASIS=N31 NGAUSS=6 NDFUNC=1 NPFUNC=1 DIFFSP=.T. $END
 $SCF    DAMP=.F. SOSCF=.F. NOCONV=.F. DIIS=.T. DIRSCF=.T. FDIFF=.F. 
         EXTRAP=.F. CONV=2.5D-07 $END
 $SYSTEM MEMORY=300000000 $END
 $DATA
 from ono-file
 C1
 C           6.0   0.4702912028  -0.0690304519   0.0057838442
 O           8.0   0.4183392400  -1.3235402258   0.0201977641
 N           7.0  -0.6450145724   0.6718956505   0.0068042866
 H           1.0  -0.5693396301   1.6810999608  -0.0573155186
 C           6.0  -1.9750480397   0.0749972854  -0.0161047441
 H           1.0  -2.1230689616  -0.5779560444   0.8463597473
 H           1.0  -2.1256448750  -0.5192594778  -0.9208012753
 H           1.0  -2.7235695124   0.8640738003   0.0119682631
 C           6.0   1.7942458458   0.6487402988  -0.0103204530
 H           1.0   2.3954651189   0.3048578476   0.8354430225
 H           1.0   1.6892780998   1.7331342571   0.0413789822
 H           1.0   2.3303440876   0.3843362089  -0.9261789003
 $END

 $H
S   3
1        33.8700000              0.0060680
2         5.0950000              0.0453080
3         1.1590000              0.2028220
S   1
1         0.3258000              1.0000000
S   1
1         0.1027000              1.0000000
P   1
1         1.4070000              1.0000000
P   1
1         0.3880000              1.0000000
D   1
1         1.0570000              1.0000000

 $END
 $C
S   8
1      8236.0000000              0.0005310
2      1235.0000000              0.0041080
3       280.8000000              0.0210870
4        79.2700000              0.0818530
5        25.5900000              0.2348170
6         8.9970000              0.4344010
7         3.3190000              0.3461290
8         0.3643000             -0.0089830
S   1
1         0.9059000              1.0000000
S   8
1      8236.0000000             -0.0001130
2      1235.0000000             -0.0008780
3       280.8000000             -0.0045400
4        79.2700000             -0.0181330
5        25.5900000             -0.0557600
6         8.9970000             -0.1268950
7         3.3190000             -0.1703520
8         0.3643000              0.5986840
S   1
1         0.1285000              1.0000000
S   1
1         0.0440200              1.0000000
P   3
1        18.7100000              0.0140310
2         4.1330000              0.0868660
3         1.2000000              0.2902160
P   1
1         0.3827000              1.0000000
P   1
1         0.1209000              1.0000000
P   1
1         0.0356900              1.0000000
D   1
1         1.0970000              1.0000000
D   1
1         0.3180000              1.0000000
F   1
1         0.7610000              1.0000000

 $END
 $N
S   8
1     11420.0000000              0.0005230
2      1712.0000000              0.0040450
3       389.3000000              0.0207750
4       110.0000000              0.0807270
5        35.5700000              0.2330740
6        12.5400000              0.4335010
7         4.6440000              0.3474720
8         0.5118000             -0.0085080
S   1
1         1.2930000              1.0000000
S   8
1     11420.0000000             -0.0001150
2      1712.0000000             -0.0008950
3       389.3000000             -0.0046240
4       110.0000000             -0.0185280
5        35.5700000             -0.0573390
6        12.5400000             -0.1320760
7         4.6440000             -0.1725100
8         0.5118000              0.5999440
S   1
1         0.1787000              1.0000000
S   1
1         0.0576000              1.0000000
P   3
1        26.6300000              0.0146700
2         5.9480000              0.0917640
3         1.7420000              0.2986830
P   1
1         0.5550000              1.0000000
P   1
1         0.1725000              1.0000000
P   1
1         0.0491000              1.0000000
D   1
1         1.6540000              1.0000000
D   1
1         0.4690000              1.0000000
F   1
1         1.0930000              1.0000000

 $END
 $O
S   8
1     15330.0000000              0.0005080
2      2299.0000000              0.0039290
3       522.4000000              0.0202430
4       147.3000000              0.0791810
5        47.5500000              0.2306870
6        16.7600000              0.4331180
7         6.2070000              0.3502600
8         0.6882000             -0.0081540
S   1
1         1.7520000              1.0000000
S   8
1     15330.0000000             -0.0001150
2      2299.0000000             -0.0008950
3       522.4000000             -0.0046360
4       147.3000000             -0.0187240
5        47.5500000             -0.0584630
6        16.7600000             -0.1364630
7         6.2070000             -0.1757400
8         0.6882000              0.6034180
S   1
1         0.2384000              1.0000000
S   1
1         0.0737600              1.0000000
P   3
1        34.4600000              0.0159280
2         7.7490000              0.0997400
3         2.2800000              0.3104920
P   1
1         0.7156000              1.0000000
P   1
1         0.2140000              1.0000000
P   1
1         0.0597400              1.0000000
D   1
1         2.3140000              1.0000000
D   1
1         0.6450000              1.0000000
F   1
1         1.4280000              1.0000000

 $END


 $FITINP IFITU=3 XMUMX=1.0D+24 NMUESP=8 $END
 $ABSINP JABS=4 $END
!
! OPLS-AA
!
 $RISMUN CLTYP=HNC THR=1.0D-11 XMN=0.2 IROOT=0 $END
 $UDATA
  SGU(1)=3.750,2.960,3.250,1.000,3.500,2.500,2.500,2.500,3.500,2.500,
         2.500,2.500
  EPU(1)=0.105,0.210,0.170,0.056,0.066,0.030,0.030,0.030,0.066,0.030,
         0.030,0.030
 $END

   >>>>>HNC     <<<<<   
 $HVDATA   NEW2
 NGRID =           4096
 DELTR =      0.0250000
 NV    =              3
 TEMP  =    300.0000000
 GEOM       COORDINATE (ANGSTROM)       SIGMA    EPSILON  CHARGE     DENSITY      MASS      DIFF
O       0.000000   0.000000   0.000000  3.16600  0.15500 -0.82000  1 3.342600E-02 15.9994 3.9000E-05
H1      0.816490  -0.577360   0.000000  1.00000  0.05600  0.41000  1 3.342600E-02  1.0079 3.9000E-05
H2     -0.816490  -0.577360   0.000000  1.00000  0.05600  0.41000  1 3.342600E-02  1.0079 3.9000E-05
 ****
  -1.812735871593E+02 -1.814095636736E+02 -1.817655429953E+02 -1.822469803994E+02
  -1.827758713881E+02 -1.832919417461E+02 -1.837525520456E+02 -1.841292850116E+02
  -1.844039886525E+02 -1.845651019348E+02 -1.846047484534E+02 -1.845165373356E+02
  -1.842939565563E+02 -1.839291590452E+02 -1.834119928596E+02 -1.827291316540E+02
  -1.818632021450E+02 -1.807918084160E+02 -1.794863680002E+02 -1.779106638141E+02
  -1.760190111752E+02 -1.737539157453E+02 -1.710430806395E+02 -1.677955936797E+02
  -1.638971165568E+02 -1.592039091410E+02 -1.535356107270E+02 -1.466669245520E+02
  -1.383188666638E+02 -1.281512599752E+02 -1.157600543028E+02 -1.006862548559E+02
  -8.244804036075E+01 -6.061331456887E+01 -3.493302869939E+01 -5.547333112193E+00
   2.675724004250E+01  6.032966028754E+01  9.264144589066E+01  1.206411226691E+02
   1.414635756192E+02  1.532045040416E+02  1.553582928918E+02  1.487368471904E+02
   1.350287163052E+02  1.162955537763E+02  9.459402879272E+01  7.175023215045E+01
   4.924121631624E+01  2.814618213811E+01  9.153032654177E+00 -7.389363385243E+00
  -2.139073684352E+01 -3.293263611120E+01 -4.219254262691E+01 -4.938715058367E+01
  -5.473534620889E+01 -5.843723669181E+01 -6.066447491617E+01 -6.155771253060E+01
  -6.122817035848E+01 -5.976142807570E+01 -5.722239624120E+01 -5.366102101743E+01
  -4.911864302325E+01 -4.363513599717E+01 -3.725702473789E+01 -3.004672220182E+01
  -2.209281337023E+01 -1.352090615210E+01 -4.503947996225E+00  4.729896124168E+00
   1.389452235132E+01  2.265151997345E+01  3.062697499756E+01  3.744053124576E+01
   4.274459421608E+01  4.626760107587E+01  4.785214513124E+01  4.747830517586E+01
   4.526572294097E+01  4.145388398364E+01  3.636617551363E+01  3.036700332205E+01
   2.382136694153E+01  1.706352713254E+01  1.037752258688E+01  3.988957640568E+00
  -1.934488915067E+00 -7.276987903175E+00 -1.196575287267E+01 -1.596160265681E+01
  -1.925021052507E+01 -2.183471409248E+01 -2.372991540581E+01 -2.495803441140E+01
  -2.554584740253E+01 -2.552299602896E+01 -2.492125502863E+01 -2.377456932100E+01
  -2.211969697664E+01 -1.999731170994E+01 -1.745342190036E+01 -1.454094876346E+01
  -1.132127567163E+01 -7.865537025632E+00 -4.255369256748E+00 -5.828135424630E-01
   3.050937105055E+00  6.538190830239E+00  9.768911006612E+00  1.263624631799E+01
   1.504302713287E+01  1.690853473772E+01  1.817464900852E+01  1.881044455432E+01
   1.881447932861E+01  1.821438455393E+01  1.706383208954E+01  1.543739965698E+01
   1.342415773093E+01  1.112090141922E+01  8.625851570472E+00  6.033414657405E+00
   3.430304929381E+00  8.930707892276E-01 -1.513124607759E+00 -3.734726494046E+00
  -5.729307939470E+00 -7.464660399458E+00 -8.917683672461E+00 -1.007324649910E+01
  -1.092313412228E+01 -1.146515214737E+01 -1.170241940915E+01 -1.164285509592E+01
  -1.129884560970E+01 -1.068706190170E+01 -9.828386802856E+00 -8.747902455908E+00
  -7.474880201986E+00 -6.042709111978E+00 -4.488696285524E+00 -2.853673524864E+00
  -1.181353565107E+00  4.826036365360E-01  2.091826565323E+00  3.600745181429E+00
   4.966313884783E+00  6.149834100660E+00  7.118730923024E+00  7.848119441536E+00
   8.322000417067E+00  8.533954788353E+00  8.487258781350E+00  8.194407925043E+00
   7.676106594786E+00  6.959837460404E+00  6.078162353019E+00  5.066918250837E+00
   3.963460207711E+00  2.805073146296E+00  1.627634470316E+00  4.645679300165E-01
  -6.539075879497E-01 -1.701258511370E+00 -2.654888210960E+00 -3.496209895253E+00
  -4.210591443166E+00 -4.787217959915E+00 -5.218909865380E+00 -5.501924858453E+00
  -5.635762591603E+00 -5.622981965390E+00 -5.469033207267E+00 -5.182100367865E+00
  -4.772944782599E+00 -4.254736307711E+00 -3.642856978256E+00 -2.954661141323E+00
  -2.209177399452E+00 -1.426740866669E+00 -6.285494785580E-01  1.638548663047E-01
   9.291710083091E-01  1.646970556777E+00  2.298349821070E+00  2.866566964412E+00
   3.337625261970E+00  3.700762885280E+00  3.948813599318E+00  4.078411151971E+00
   4.090021989984E+00  3.987804877235E+00  3.779310043170E+00  3.475042875435E+00
   3.087926236119E+00  2.632700396328E+00  2.125300043279E+00  1.582244403836E+00
   1.020070139603E+00  4.548286422583E-01 -9.833915622513E-02 -6.255452061791E-01
  -1.114415309790E+00 -1.554274743379E+00 -1.936267657314E+00 -2.253420691164E+00
  -2.500661225066E+00 -2.674799624404E+00 -2.774483167829E+00 -2.800127333703E+00
  -2.753828108187E+00 -2.639257112892E+00 -2.461539862838E+00 -2.227116397213E+00
  -1.943583013768E+00 -1.619513845962E+00 -1.264261610574E+00 -8.877379120671E-01
  -5.001749956166E-01 -1.118725995445E-01  2.670645393899E-01  6.269911924976E-01
   9.589793184699E-01  1.255059120040E+00  1.508433386074E+00  1.713655555884E+00
   1.866763258868E+00  1.965361165591E+00  2.008649609220E+00  1.997398409699E+00
   1.933868317858E+00  1.821685260834E+00  1.665674814269E+00  1.471665926429E+00
   1.246273737074E+00  9.966714251870E-01  7.303604225266E-01  4.549472388031E-01
   1.779336900595E-01 -9.347426586632E-02 -3.525354847526E-01 -5.931182202581E-01
  -8.098194080242E-01 -9.980586571522E-01 -1.154147631273E+00 -1.275335895803E+00
  -1.359834507682E+00 -1.406818646510E+00 -1.416410533256E+00 -1.389643776695E+00
  -1.328410220111E+00 -1.235390337804E+00 -1.113968319150E+00 -9.681331567985E-01
  -8.023673597914E-01 -6.215252908611E-01 -4.307035833409E-01 -2.351065500823E-01
  -3.990993645197E-02  1.498732956516E-01  3.295212551811E-01  4.947215712152E-01
   6.416762773005E-01  7.671898200798E-01  8.687374860349E-01  9.445123280029E-01
   9.934495610611E-01  1.015228349502E+00  1.010251824574E+00  9.796070192682E-01
   9.250070991878E-01  8.487187970374E-01  7.534782769274E-01  6.423987910870E-01
   5.188734375234E-01  3.864761393522E-01  2.488636579174E-01  1.096810882080E-01
  -2.752711991343E-02 -1.593989607984E-01 -2.828282123777E-01 -3.950283547217E-01
  -4.935863869179E-01 -5.765060804220E-01 -6.422403934036E-01 -6.897129122384E-01
  -7.183283169938E-01 -7.279719786465E-01 -7.189989194595E-01 -6.922124931013E-01
  -6.488332945303E-01 -5.904589740225E-01 -5.190158235766E-01 -4.367032024371E-01
  -3.459320817997E-01 -2.492591855772E-01 -1.493183885901E-01 -4.875117158496E-02
   4.986197271317E-02  1.440672678370E-01  2.315986467855E-01  3.104322741533E-01
   3.788330635129E-01  4.353919376364E-01  4.790529091234E-01  5.091294366342E-01
   5.253098996542E-01  5.276524267003E-01  5.165696705300E-01  4.928044465056E-01
   4.573974064777E-01  4.116481166731E-01  3.570710249208E-01  2.953478569014E-01
   2.282779640302E-01  1.577280814702E-01  8.558284059470E-02  1.369724285677E-02
  -5.614786082037E-02 -1.222864046575E-01 -1.832031459382E-01 -2.375645514809E-01
  -2.842441297568E-01 -3.223419384045E-01 -3.511981236889E-01 -3.704004576904E-01
  -3.797859457196E-01 -3.794366702348E-01 -3.696701331266E-01 -3.510244447049E-01
  -3.242387980862E-01 -2.902297494472E-01 -2.500639085063E-01 -2.049277154729E-01
  -1.560950493316E-01 -1.048934626388E-01 -5.266987788627E-02 -7.565952062373E-04
   4.956154083667E-02  9.707799939174E-02  1.406926817456E-01  1.794366165067E-01
   2.124926463511E-01  2.392116440040E-01  2.591239276720E-01  2.719456935045E-01
   2.775804287828E-01  2.761154186555E-01  2.678135956031E-01  2.531011092314E-01
   2.325511003695E-01  2.068642542848E-01  1.768467714873E-01  1.433864396908E-01
   1.074275079035E-01  6.994506378798E-02  3.191959117061E-02 -5.687652540909E-03
  -4.195785537369E-02 -7.603594583285E-02 -1.071495198063E-01 -1.346250329965E-01
  -1.579009780329E-01 -1.765378479446E-01 -1.902247737235E-01 -1.987828034632E-01
  -2.021648708598E-01 -2.004525725243E-01 -1.938499435744E-01 -1.826744806065E-01
  -1.673457173695E-01 -1.483717028400E-01 -1.263337708472E-01 -1.018700167879E-01
  -7.565791724048E-02 -4.839653472377E-02 -2.078874956571E-02  6.476053296531E-03
   3.273843531694E-02  5.738411931145E-02  7.985763304292E-02  9.967409536923E-02
   1.164289108713E-01  1.298051987459E-01  1.395788412031E-01  1.456211005628E-01
   1.478988144645E-01  1.464722399374E-01  1.414906716045E-01  1.331860120005E-01
   1.218645154500E-01  1.078969664486E-01  9.170758217526E-02  7.376195225558E-02
   5.455434095651E-02  3.459468355392E-02  1.439560400883E-02 -5.540228490138E-03
  -2.473210630497E-02 -4.273237915784E-02 -5.913639679901E-02 -7.359109058475E-02
  -8.580202687299E-02 -9.553880613422E-02 -1.026387271263E-01 -1.070086789616E-01
  -1.086252696200E-01 -1.075332411438E-01 -1.038422635813E-01 -9.772223565594E-02
  -8.939725438405E-02 -7.913844267829E-02 -6.725584774700E-02 -5.408963845880E-02
  -4.000084137479E-02 -2.536185792289E-02 -1.054700404708E-02  4.076695895024E-03
   1.815824207373E-02  3.137072033239E-02  4.341851527048E-02  5.404352726352E-02
   6.303027416375E-02  7.020979125145E-02  7.546227453712E-02  7.871844628363E-02
   7.995965239887E-02  7.921673272680E-02  7.656773225429E-02  7.213454755150E-02
   6.607862368645E-02  5.859583624212E-02  4.991070652406E-02  4.027010956162E-02
   2.993663995404E-02  1.918180408294E-02  8.279204821003E-03 -2.502119230150E-03
  -1.290404743299E-02 -2.268528188889E-02 -3.162667686777E-02 -3.953588240524E-02
  -4.625121143648E-02 -5.164465939921E-02 -5.562402779404E-02 -5.813412455040E-02
  -5.915703740235E-02 -5.871149769130E-02 -5.685137420227E-02 -5.366335574997E-02
  -4.926390035278E-02 -4.379554402354E-02 -3.742267658124E-02 -3.032690167026E-02
  -2.270210654010E-02 -1.474937052819E-02 -6.671842882737E-03  1.330282756330E-03
   9.064574821806E-03  1.635083842263E-02  2.302515600470E-02  2.894340668636E-02
   3.398419193129E-02  3.805111328189E-02  4.107436529203E-02  4.301162613693E-02
   4.384824602334E-02  4.359675202358E-02  4.229570380925E-02  4.000795056489E-02
   3.681835178569E-02  3.283103640049E-02  2.816628258903E-02  2.295710757776E-02
   1.734565968955E-02  1.147950688860E-02  5.507914269071E-03 -4.217996418937E-04
  -6.167743845645E-03 -1.159669550114E-02 -1.658703179646E-02 -2.103129367570E-02
  -2.483833334569E-02 -2.793500812541E-02 -3.026739554377E-02 -3.180151574991E-02
  -3.252355963130E-02 -3.243963173137E-02 -3.157502845731E-02 -2.997308145175E-02
  -2.769360569310E-02 -2.481099925829E-02 -2.141204904568E-02 -1.759350157199E-02
  -1.345946254415E-02 -9.118690812940E-03 -4.681853867958E-03 -2.588108768227E-04
   4.044012240252E-03  8.126095344436E-03  1.189508822366E-02  1.526881711200E-02
   1.817699107555E-02  2.056257452897E-02  2.238280051932E-02  2.360980936530E-02
   2.423090633582E-02  2.424844220663E-02  2.367932934146E-02  2.255421528989E-02
   2.091634343517E-02  1.882013784834E-02  1.632955495562E-02  1.351624983155E-02
   1.045760774000E-02  7.234693941792E-03  3.930174741674E-03  6.262622952814E-04
  -2.597267073181E-03 -5.664934297911E-03 -8.507257052214E-03 -1.106225058989E-02
  -1.327669992817E-02 -1.510717960525E-02 -1.652080476450E-02 -1.749570402438E-02
  -1.802121217155E-02 -1.809778712261E-02 -1.773666253291E-02 -1.695925291167E-02
  -1.579633383270E-02 -1.428702392155E-02 -1.247759945965E-02 -1.042017486767E-02
  -8.171284740658E-03 -5.790403762349E-03 -3.338441474545E-03 -8.762478282631E-04
   1.536835540718E-03  3.844345929969E-03  5.993962079163E-03  7.938632351187E-03
   9.637545815579E-03  1.105692812282E-02  1.217064819498E-02  1.296062689287E-02
   1.341704323668E-02  1.353833895142E-02  1.333102638671E-02  1.280930970536E-02
   1.199453297657E-02  1.091447292789E-02  9.602496967874E-03  8.096610168779E-03
   6.438416605046E-03  4.672022261548E-03  2.842907116934E-03  9.967944666949E-04
  -8.214554090919E-04 -2.568900999146E-03 -4.205500713871E-03 -5.694997457377E-03
  -7.005687881108E-03 -8.111060517827E-03 -8.990290946860E-03 -9.628585609349E-03
  -1.001737016924E-02 -1.015432190796E-02 -1.004324983489E-02 -9.693829509750E-03
  -9.121203297629E-03 -8.345459461640E-03 -7.391006431151E-03 -6.285860367059E-03
  -5.060866071864E-03 -3.748872010719E-03 -2.383881029171E-03 -1.000197970688E-03
   3.684048701006E-04  1.689484927402E-03  2.932670864748E-03  4.070332332170E-03
   5.078163866284E-03  5.935671658408E-03  6.626554323993E-03  7.138971944972E-03
   7.465700226925E-03  7.604169757459E-03  7.556392800632E-03  7.328782946705E-03
   6.931875017423E-03  6.379955035017E-03  5.690611588093E-03  4.884221705721E-03
   3.983385199169E-03  3.012322494128E-03  1.996251097107E-03  9.607561673002E-04
  -6.882992241050E-05 -1.068024519029E-03 -2.013754826926E-03 -2.884868920062E-03
  -3.662587049696E-03 -4.330884081065E-03 -4.876796012712E-03 -5.290645230401E-03
  -5.566181453366E-03 -5.700637133856E-03 -5.694698372490E-03 -5.552394128296E-03
  -5.280908620944E-03 -4.890323273721E-03 -4.393296316700E-03 -3.804689210007E-03
  -3.141150341037E-03 -2.420666970371E-03 -1.662097138635E-03 -8.846931950001E-04
  -1.076287580204E-04  6.504596979509E-04  1.371905842921E-03  2.040411417256E-03
   2.641400294740E-03  3.162321422576E-03  3.592894586245E-03  3.925294731707E-03
   4.154271963497E-03  4.277206209211E-03  4.294096938359E-03  4.207490115070E-03
   4.022345811291E-03  3.745851468796E-03  3.387186760120E-03  2.957247212531E-03
   2.468334336655E-03  1.933820794272E-03  1.367799280581E-03  7.847241391195E-04
   1.990544264302E-04 -3.750929447311E-04 -9.242720602052E-04 -1.436011396382E-03
  -1.899085322959E-03 -2.303748040074E-03 -2.641925537704E-03 -2.907362093626E-03
  -3.095719210421E-03 -3.204625882274E-03 -3.233680468765E-03 -3.184405396189E-03
  -3.060157186735E-03 -2.865995109982E-03 -2.608512834490E-03 -2.295638020624E-03
  -1.936405613050E-03 -1.540710866591E-03 -1.119048649986E-03 -6.822455294659E-04
  -2.411913241064E-04  1.934235313003E-04  6.113585984985E-04  1.003056444164E-03
   1.359852849441E-03  1.674159891879E-03  1.939618155538E-03  2.151215343680E-03
   2.305369272272E-03  2.399974308344E-03  2.434411048811E-03  2.409520099710E-03
   2.327541486415E-03  2.192022184391E-03  2.007694789789E-03  1.780331134334E-03
   1.516574976989E-03  1.223758464115E-03  9.097071416376E-04  5.825386103174E-04
   2.504597571851E-04 -7.843244410987E-05 -3.963419667608E-04 -6.959521638398E-04
  -9.705877618332E-04 -1.214356919041E-03 -1.422270591040E-03 -1.590336912276E-03
  -1.715629120781E-03 -1.796326073044E-03 -1.831725231378E-03 -1.822228510289E-03
  -1.769302157683E-03 -1.675412275451E-03 -1.543938271792E-03 -1.379066842006E-03
  -1.185669617313E-03 -9.691677689112E-04 -7.353872241662E-04 -4.904081245062E-04
  -2.404123414364E-04  8.467336788976E-06  2.502927240659E-04  4.794572056566E-04
   6.908110434327E-04  8.797724077746E-04  1.042421788793E-03  1.175578038624E-03
   1.276854638798E-03  1.344695434331E-03  1.378389447829E-03  1.378065036575E-03
   1.344664007355E-03  1.279896906065E-03  1.186180986682E-03  1.066562878400E-03
   9.246281529467E-04  7.644003891217E-04  5.902323855552E-04  4.066924259519E-04
   2.184484147665E-04  3.015280844498E-05 -1.536689591671E-04 -3.287238883787E-04
  -4.910483420431E-04 -6.370943153563E-04 -7.638033179226E-04 -8.686663618125E-04
  -9.497690573346E-04 -1.005821083603E-03 -1.036169826311E-03 -1.040798242994E-03
  -1.020307520307E-03 -9.758853166560E-04 -9.092608334167E-04 -8.226481153895E-04
  -7.186793466639E-04 -6.003299748156E-04 -4.708377575480E-04 -3.336177898631E-04
  -1.921757228076E-04 -5.002124262727E-05  8.941607117848E-05  2.228666278774E-04
   3.472946081802E-04  4.599641225672E-04  5.584963326693E-04  6.409164902375E-04
   7.056900061190E-04  7.517470559624E-04  7.784954041492E-04  7.858215227141E-04
   7.740802460541E-04  7.440735739546E-04  6.970193650221E-04  6.345109880468E-04
   5.584690751316E-04  4.710867841032E-04  3.747699853516E-04  2.720739797905E-04
   1.656382886636E-04  5.812116875045E-05 -4.786463255489E-05 -1.498133299899E-04
  -2.453834163814E-04 -3.324495242427E-04 -4.091477799501E-04 -4.739136753457E-04
  -5.255117859028E-04 -5.630567741459E-04 -5.860254413230E-04 -5.942597116917E-04
  -5.879607541996E-04 -5.676745590651E-04 -5.342695831538E-04 -4.889071597777E-04
  -4.330056252803E-04 -3.681991468036E-04 -2.962924392519E-04 -2.192125328034E-04
  -1.389588908644E-04 -5.755309145683E-05  2.301064280427E-05  1.008129296730E-04
   1.740535753552E-04  2.410918378129E-04  3.004816894339E-04  3.510014050513E-04
   3.916768683521E-04  4.217982522258E-04  4.409298105011E-04  4.489127854788E-04
   4.458615141939E-04  4.321530686118E-04  4.084108245609E-04  3.754825774011E-04
   3.344138485423E-04  2.864172105839E-04  2.328384431956E-04  1.751204690666E-04
   1.147659582708E-04  5.329957833776E-05 -7.769237277473E-06 -6.698208629943E-05
  -1.229651879255E-04 -1.744599876604E-04 -2.203501739332E-04 -2.596845245441E-04
  -2.916951982987E-04 -3.158111232837E-04 -3.316663414949E-04 -3.391032090439E-04
  -3.381705577183E-04 -3.291169573791E-04 -3.123794091438E-04 -2.885678219108E-04
  -2.584457886264E-04 -2.229081783146E-04 -1.829561967410E-04 -1.396705358935E-04
  -9.418333843710E-05 -4.764963753075E-05 -1.219004262539E-06  4.399196318165E-05
   8.692563287006E-05  1.266072688782E-04  1.621663361862E-04  1.928547715402E-04
   2.180618185515E-04  2.373251906410E-04  2.503383473362E-04  2.569538398244E-04
   2.571827061873E-04  2.511900651805E-04  2.392870738528E-04  2.219195715054E-04
   1.996537334191E-04  1.731591949170E-04  1.431900851258E-04  1.105645225752E-04
   7.614307624223E-05  4.080678032254E-05  5.435216047800E-06 -2.911477127350E-05
  -6.202925101731E-05 -9.255578475917E-05 -1.200200250576E-04 -1.438399504117E-04
  -1.635374870209E-04 -1.787472715939E-04 -1.892224538048E-04 -1.948374461383E-04
  -1.955876719093E-04 -1.915863695368E-04 -1.830586446827E-04 -1.703329615151E-04
  -1.538303832643E-04 -1.340518540722E-04 -1.115639185265E-04 -8.698323577071E-05
  -6.096032848623E-05 -3.416294873732E-05 -7.259503885928E-06  1.909709179433E-05
   4.428473163381E-05  6.772628511441E-05  8.890227957673E-05  1.073618657191E-04
   1.227318185182E-04  1.347234449096E-04  1.431372587565E-04  1.478654026986E-04
   1.488917906284E-04  1.462900578081E-04  1.402193973998E-04  1.309184687235E-04
   1.186975437928E-04  1.039291564723E-04  8.703748709347E-05  6.848679854387E-05
   4.876919608151E-05  2.839205024500E-05  7.865363536513E-06 -1.231058600433E-05
  -3.165706345116E-05 -4.972786014431E-05 -6.611922616554E-05 -8.047851205071E-05
  -9.251137243659E-05 -1.019873659013E-04 -1.087438840624E-04 -1.126883294528E-04
  -1.137985602706E-04 -1.121216074801E-04 -1.077707653948E-04 -1.009211390564E-04
  -9.180382270420E-05 -8.069885619676E-05 -6.792718885510E-05 -5.384184231990E-05
  -3.881853507986E-05 -2.324598202928E-05 -7.516139687976E-06  7.985390283648E-06
   2.288854475082E-05  3.684738245731E-05  4.954784805995E-05  6.071457440493E-05
   7.011655699163E-05  7.757161649697E-05  8.294954708495E-05  8.617393288014E-05
   8.722259806159E-05  8.612673988953E-05  8.296877550055E-05  7.787901307257E-05
   7.103123478945E-05  6.263735153639E-05  5.294126010432E-05  4.221209675703E-05
   3.073704342429E-05  1.881389677296E-05  6.743562982072E-06 -5.177313642246E-06
  -1.666343691295E-05 -2.744747175945E-05 -3.728606005582E-05 -4.596508530003E-05
  -5.330410277593E-05 -5.915982626377E-05 -6.342863500758E-05 -6.604804376789E-05
  -6.699715034798E-05 -6.629605420356E-05 -6.400431007807E-05 -6.021845712743E-05
  -5.506872946501E-05 -4.871502749892E-05 -4.134228842639E-05 -3.315536124375E-05
  -2.437354529895E-05 -1.522491001113E-05 -5.940561494472E-06  3.251027725588E-06
   1.212946777905E-05  2.048757643179E-05  2.813604332746E-05  3.490755405677E-05
   4.066026781727E-05  4.528060273476E-05  4.868525823848E-05  5.082246647807E-05
   5.167244111912E-05  5.124705429801E-05  4.958874749102E-05  4.676874335590E-05
   4.288459738119E-05  3.805718625606E-05  3.242719817369E-05  2.615124258741E-05
   1.939766200500E-05  1.234217427369E-05  5.163434059935E-06 -1.961357213030E-06
  -8.860708685230E-06 -1.537284500570E-05 -2.134938857980E-05 -2.665861802666E-05
  -3.118825417571E-05 -3.484769776298E-05 -3.756969802986E-05 -3.931140503262E-05
  -4.005481542301E-05 -3.980659475358E-05 -3.859731628778E-05 -3.648012757742E-05
  -3.352891211079E-05 -2.983598153167E-05 -2.550938649165E-05 -2.066990051464E-05
  -1.544777796192E-05 -9.979350486045E-06 -4.403568852693E-06  1.141443945157E-06
   6.521725325864E-06  1.161063187978E-05  1.629173260135E-05  2.046139129394E-05
   2.403096413916E-05  2.692858672155E-05  2.910049889791E-05  3.051190491919E-05
   3.114734121743E-05  3.101057376722E-05  3.012402103523E-05  2.852774690174E-05
   2.627804124694E-05  2.344565096965E-05  2.011369608384E-05  1.637534708040E-05
   1.233130908312E-05  8.087195948618E-06  3.750843651646E-06 -5.703525781377E-07
  -4.772031603672E-06 -8.755311014202E-06 -1.242904612425E-05 -1.571183545033E-05
  -1.853374883461E-05 -2.083772638473E-05 -2.258064005135E-05 -2.373398415422E-05
  -2.428420495804E-05 -2.423265380043E-05 -2.359519076867E-05 -2.240144157066E-05
  -2.069374980051E-05 -1.852584185225E-05 -1.596125868967E-05 -1.307158313130E-05
  -9.934524475371E-06 -6.631895092559E-06 -3.247544950503E-06  1.347109930597E-07
   3.433107315645E-06  6.569853098883E-06  9.472908669574E-06  1.207758954027E-05
   1.432794894207E-05  1.617792503421E-05  1.759221664097E-05  1.854688705239E-05
   1.902967282029E-05  1.904001149114E-05  1.858877940812E-05  1.769776671237E-05
   1.639889354340E-05  1.473320675940E-05  1.274967135959E-05  1.050380539165E-05
   8.056179892137E-06  5.470837828745E-06  2.813658027335E-06  1.507188541618E-07
  -2.453312389386E-06 -4.936711669696E-06 -7.242130609481E-06 -9.317882272562E-06
  -1.111906682037E-05 -1.260849802537E-05 -1.375742819078E-05 -1.454604309719E-05
  -1.496373516217E-05 -1.500913887398E-05 -1.468994736897E-05 -1.402250626181E-05
  -1.303121323060E-05 -1.174772988924E-05 -1.021004243463E-05 -8.461385141246E-06
  -6.549069054660E-06 -4.523234076250E-06 -2.435569470150E-06 -3.380217016297E-07
   1.718464918196E-06  3.685159440764E-06  5.516664740061E-06  7.171936467775E-06
   8.615164754121E-06  9.816514527711E-06  1.075269647845E-05  1.140737310845E-05
   1.177138049904E-05  1.184277880174E-05  1.162672129955E-05  1.113516292621E-05
   1.038640615122E-05  9.404512375502E-06  8.218583174067E-06  6.861944640941E-06
   5.371244009756E-06  3.785494977723E-06  2.145082596942E-06  4.907659037165E-07
  -1.137311566794E-06 -2.700566749594E-06 -4.162868849922E-06 -5.491345743873E-06
  -6.657099889980E-06 -7.635806557750E-06 -8.408195582376E-06 -8.960394717501E-06
  -9.284142381012E-06 -9.376855591922E-06 -9.241566031903E-06 -8.886717465157E-06
  -8.325843892002E-06 -7.577126753086E-06 -6.662856609669E-06 -5.608802104495E-06
  -4.443515404262E-06 -3.197579637340E-06 -1.902830873714E-06 -5.915603136716E-07
   7.042704731297E-07  1.953795120394E-06  3.127958755959E-06  4.200180781027E-06
   5.146937289178E-06  5.948262542287E-06  6.588147518053E-06  7.054839777238E-06
   7.341027907353E-06  7.443919949745E-06  7.365205427377E-06  7.110915065235E-06