 $MP2 code=gpurimp2 $END
 $AUXBAS cabnam=ccd $END
 $offload rhf=.t. makefp=.t. $end
! Change NGROUP to reflect number of nodes you are running on
 $GDDI BALTYP=SLB NGROUP=20 $END
! Change 1st and 2nd entry of NGRFMO(1) to reflect number of nodes you
! are running on
 $FMOPRP
    NGRFMO(1)= 5, 20, 0, 5, 20, 0, 0, 0, 0, 0
    NPRINT=1
 $END
 $SCF DIRSCF=.TRUE. DAMP=.TRUE. SHIFT=.TRUE. NPUNCH=0 $END
 $SYSTEM MWORDS=500 MEMDDI=1800 $END
 $LOCAL CVGLOC=1.0E-6 FCORE=.TRUE. $END
! Threaded integrals
 $INTGRL INTOMP=1 $END
 $CONTRL SCFTYP=RHF RUNTYP=ENERGY NPRINT=-5
         MPLEVL=2 ISPHER=1
         LOCAL=RUEDNBRG MAXIT=50 $END
 $FMO
     NBODY=2
     IEFMO=1
     RESDIM=0.5
! UNCOMMENT THE LINE BELOW FOR POST-HF RUNS
     RCORSD=0.5
     MODEFM(1)=0, 16, 1, 1, 1
     RAFO(1)=.1, 1, 1
     MAXCAO=9
     MAXBND=26
     NLAYER=1
     NFRAG=5
     ICHARG(1)=
          0, 0, 0, 0, 0
     FRGNAM(1)=
            Msn1Fn1,   Msn2,   Msn3,   Msn4,
            Msn5
      INDAT(1)=0
                 1     2     3     4     5     8
                10    12    16    18    19    22
                24    26    32    34    36    44
                47    50    64    67   113   114
               118   120   124   127   135   159
               160   163   164   168   173   174
               178   179   183   184   188   192
               195   196   199   200   203   204
               207   209   232   252   253   255
               256   257   258   259   260   261
               262   263   264   265   279   280
               281   282   283   284   285     
               169   268   273   274   275   276
               269   270   271   272   277   278
                 0
                 6    13    20    27    38    52
                69    81   115   121   129   142
               161   162   165   166   167   170
               171   172   175   176   177   180
               181   182   185   186   187   189
               190   191   193   194   197   198
               201   202   205   206   208   210
               213   215   217   222   227   235
               237   254   266     0
                 7     9    11    14    15    17
                21    23    25    30    31    33
                35    37    42    46    49    51
                59    61    63    66    68    77
                79    80    91    93    94   100
               106   107   111   116   117   119
               122   123   126   128   132   134
               140   141   147   152   157   211
               212   214   216   220   221   224
               226   231   234   236   241   243
               244   247   249     0
                28    29    41    43    45    48
                56    58    60    62    65    73
                75    76    78    85    87    89
                90    92    96    97    98    99
               101   102   103   104   105   108
               109   110   112   125   131   133
               138   139   145   146   150   151
               153   154   155   156   158   218
               219   225   229   233   239   242
               245   246   248   250   251   267
               292   293   294   295   301   302
               303   304     0
                39    40    53    54    55    57
                70    71    72    74    82    83
                84    86    88    95   130   136
               137   143   144   148   149   223
               228   230   238   240   287   288
               289   290   291   286   296   297
               298   299   300     0
 $END
 $FMOBND
        -115      11
        -116     170
        -119      43
        -121      25
        -122     180
        -125      40
        -126      75
        -128      48
        -129      49
        -132     189
        -138      71
        -139      74
        -140      97
        -141      78
        -142      79
        -152      99
        -157     110
        -195     162
        -196     165
        -199     172
        -200     175
        -203     182
        -204     185
        -207     191
 $END
 $DATA
 EFMO 6 fragment MSN single pore model
 C1
 O.1-1    8
      N31 6

 C.1-1    6
      N31 6

 Si.1-1  14
      N31 6

 N.1-1    7
      N31 6

 H.1-1    1
      N31 6

 $END
 $FMOXYZ
O   8   -9.190120   15.098840   -5.498450
O   8   -8.079500   16.885430   -3.926790
O   8   -6.138670   12.543630   -2.521660
O   8   -7.049320   14.407900   -4.120200
O   8   -6.823190   16.144360   -6.150700
O   8   -4.467310   18.672330  -10.267100
O   8   -1.113780   12.507040   -8.488410
O   8   -4.546530   13.519630   -4.400680
O   8   -2.088370   14.862590  -12.750570
O   8   -5.253290   15.042380   -2.306270
O   8   -2.686350   16.960050  -11.217170
O   8   -4.601230   16.946510   -0.649910
O   8   -1.863590   19.385880  -10.407320
O   8    1.368860   11.987580   -7.561060
O   8    0.897310   14.229680   -8.919150
O   8   -2.711320   13.382270    0.994370
O   8   -0.552870   15.489860  -10.718000
O   8   -2.904650   14.892710   -1.160850
O   8   -3.399680   16.808700   -2.980910
O   8    0.136690   20.101980   -4.958340
O   8    1.601430   12.637310   -4.529420
O   8   -0.573460   13.860340   -0.488010
O   8    0.802440   16.882870   -8.851990
O   8   -1.658110   15.856230    0.929580
O   8    1.195770   18.372380   -6.652750
O   8   -1.569130   17.649060    2.852500
O   8    2.803880   19.979600   -5.171140
O   8    0.405810   13.063920  -12.559640
O   8    1.654650   14.279150  -14.607230
O   8    4.209530   12.280730   -4.693090
O   8    3.056550   14.546670   -5.599270
O   8    0.278360   13.372320    4.667080
O   8    2.914620   16.458140   -7.398290
O   8   -0.290070   15.312690    3.064770
O   8   -0.639680   17.090610  -12.896100
O   8    0.587040   17.198860    1.397990
O   8    0.253540   19.342390  -13.998770
O   8    3.833740   20.618290   -2.124270
O   8    2.754230    9.314710  -14.960580
O   8    2.179060   11.746000  -14.015640
O   8    3.007240   13.699990  -12.373260
O   8    4.979260   13.117180   -0.397390
O   8    2.105320   15.627260  -10.799680
O   8    2.203970   14.418990    3.182860
O   8    3.487360   16.406380  -15.457970
O   8    4.234230   16.904050   -5.142000
O   8    1.176160   15.812050    5.203400
O   8    1.867360   17.289300  -13.582660
O   8    4.990790   18.699870   -3.455240
O   8    1.516470   17.734870    6.893450
O   8    0.926840   18.711300  -11.464420
O   8    6.512210   20.295360   -1.972850
O   8    4.863300    8.842890  -10.731660
O   8    4.000390   10.243170  -12.815360
O   8    4.512440   11.293870  -15.213680
O   8    3.745850   11.266520   -9.332140
O   8    4.178380   13.723150  -16.228600
O   8    3.808150   13.860720   -9.853790
O   8    7.498380   12.823470    0.418950
O   8    4.665360   15.645930  -11.601730
O   8    6.954200   14.450710   -1.616630
O   8    4.444460   17.664510  -13.306640
O   8    6.012580   16.242910   -3.302640
O   8    3.404030   15.806130    6.639510
O   8    3.076110   19.060060  -15.176740
O   8    2.722870   18.706180   -8.798760
O   8    3.036070   17.664130    4.734990
O   8    3.848690   21.067740   -9.229660
O   8    7.044480   21.274320    0.831740
O   8    6.525270   10.482640  -12.009940
O   8    5.941950   12.433240  -10.403310
O   8    6.080980   13.297150  -14.400360
O   8    5.313560   12.863920   -7.878130
O   8    6.249230   15.825000  -13.731150
O   8    5.222520   15.275930   -6.921230
O   8    6.515080   17.524010  -11.669140
O   8    7.658290   16.999240   -1.377150
O   8    5.106980   18.805250   -9.877340
O   8    8.141890   18.981680    0.217880
O   8    4.778510   19.464030   -7.275460
O   8    9.556040   20.752660    1.613840
O   8    7.189660    7.824440   -8.947040
O   8    7.382840   10.414870   -9.537280
O   8    8.487240   12.131320  -11.242720
O   8    7.166300   11.230900   -4.371340
O   8    8.106840   14.124600  -12.897980
O   8    6.796280   13.476100   -5.737830
O   8    7.982430   14.844010  -15.479290
O   8    7.373590   14.501370   -8.157290
O   8    6.819550   16.916450   -9.140630
O   8    8.874260   16.501060    0.937900
O   8    7.734940   19.290380  -10.062810
O   8    6.728180   17.920710   -5.265790
O   8    6.922860   20.526670   -5.492060
O   8   10.347250   13.983130  -11.528350
O   8    9.018210   13.152220   -4.248020
O   8    8.568610   15.589850   -3.421140
O   8    8.878060   16.574670   -7.523430
O   8    8.850550   18.980970   -6.493150
O   8    8.565350   19.205200   -3.813090
O   8   10.122300   14.019600   -0.146630
O   8   10.802730   14.361100   -2.693290
O   8   10.490880   15.176570   -5.196090
O   8   11.053210   17.485720   -6.377030
O   8   10.262560   18.482440   -8.740700
O   8   10.175540   17.744690   -1.032980
O   8   11.121390   19.791710   -2.423930
O   8   12.723710   14.190840   -0.847590
O   8   12.181790   16.846910   -4.084560
O   8   12.724660   17.776460   -1.724850
O   8   11.827000   19.467960    0.165860
O   8   14.222130   15.812740   -2.728410
Si 14   -7.769900   15.637670   -4.911310
Si 14   -5.737530   13.869850   -3.341220
Si 14   -2.928960   18.153090  -10.145060
Si 14    0.254260   13.150570   -7.882630
Si 14   -1.489290   16.112180  -11.897810
Si 14   -4.025370   15.915730   -1.755230
Si 14    0.788070   15.560970   -9.816670
Si 14   -1.962930   14.483460    0.087780
Si 14    1.403000   19.110350   -5.218580
Si 14    3.038590   13.398660   -4.445040
Si 14    1.886810   17.612510   -7.905690
Si 14   -0.734130   16.507360    2.066750
Si 14    1.807440   13.202030  -13.378750
Si 14    3.829870   15.791840   -6.252390
Si 14    0.850910   14.725580    4.031780
Si 14    0.596470   18.108170  -12.976620
Si 14    5.051820   19.536940   -2.078490
Si 14    3.351970   10.655100  -14.250430
Si 14    3.388060   14.712180  -11.180200
Si 14    6.403790   13.880350   -0.189420
Si 14    3.231220   17.607800  -14.387870
Si 14    5.495550   17.423740   -4.297860
Si 14    2.288030   16.748700    5.872590
Si 14    5.263210    9.452970  -12.190670
Si 14    5.269240   12.637210  -15.664540
Si 14    4.690420   12.595130   -9.370980
Si 14    5.462310   16.648660  -12.571090
Si 14    7.292460   15.803980   -2.418800
Si 14    4.117080   19.511150   -8.796820
Si 14    8.055370   20.115110    1.369450
Si 14    7.097580   11.382640  -10.812610
Si 14    7.100390   14.509280  -14.115020
Si 14    6.180870   14.005960   -7.154630
Si 14    6.546620   18.138740  -10.183740
Si 14    8.715570   17.566200   -0.309820
Si 14    8.193790    9.102450   -9.064020
Si 14    9.204490   13.095420  -12.308100
Si 14    7.903680   12.421880   -5.201470
Si 14    7.982760   15.881470   -8.703640
Si 14    7.779290   19.144590   -5.275290
Si 14    9.714050   14.554250   -3.890050
Si 14    9.758970   17.892850   -7.272620
Si 14   11.216570   13.657010   -1.297850
Si 14   11.644740   16.257550   -5.510810
Si 14   11.456160   18.691710   -1.253780
Si 14   13.384450   17.188060   -3.082490
O   8   -6.109540   18.015770   -7.870970
O   8   -2.894370   12.125620   -5.935000
O   8   -2.866990   14.883760   -8.812790
O   8   -4.331440   16.188010   -7.029110
O   8   -5.170260   18.112260   -5.365070
O   8   -2.491650   12.205390   -3.272720
O   8   -2.060330   14.375480   -4.730100
O   8   -1.682320   16.040470   -6.724960
O   8   -2.689710   17.538980   -8.643400
O   8   -2.323370   18.405460   -4.830430
C   6    0.864940   11.635910   -1.300350
O   8   -0.148870   13.872060   -6.470670
O   8    0.150610   15.837590   -4.790820
O   8   -0.837860   17.378260   -2.872160
O   8   -2.629530   19.295300   -2.324640
O   8    1.012630   12.579770    1.311450
O   8    2.083950   14.112940   -0.642700
O   8    1.241090   15.827840   -2.409170
O   8    1.453460   17.978340   -4.030180
O   8   -0.220210   18.967540   -0.386910
O   8    3.875350   12.595050    2.329770
O   8    3.240810   14.106540   -2.981120
O   8    3.635720   16.167930   -1.341390
O   8    2.334870   18.168140   -0.285860
O   8    1.358500   19.751120    1.645260
O   8    3.856650   13.338480    4.945700
O   8    4.759690   15.037820    3.061170
O   8    4.154820   16.794340    1.150480
O   8    4.866510   18.480940   -0.834210
O   8    2.559520   20.203170    4.192940
O   8    6.225290   15.129000    0.858310
O   8    6.356870   17.092290    2.599480
O   8    4.932780   19.100090    3.566540
O   8    4.318480   19.509440    6.146610
O   8    6.917480   18.099350    4.999170
O   8    7.479730   19.477720    2.768090
Si 14   -5.612740   17.101420   -6.603300
Si 14   -3.015810   13.052070   -4.585650
Si 14   -2.905240   16.155490   -7.792390
Si 14   -0.956960   15.041490   -5.686440
Si 14   -2.310330   17.959860   -3.253150
Si 14    0.842220   13.126040   -0.229430
Si 14    0.501460   16.748220   -3.521550
Si 14    2.546680   15.057620   -1.858290
Si 14    1.015260   18.517730    0.591640
Si 14    3.688240   13.839950    3.380400
Si 14    3.753980   17.397210   -0.312040
Si 14    5.344560   16.000090    1.913930
Si 14    3.706430   19.124830    4.647830
Si 14    6.415210   18.445290    3.465920
H   1   -9.180010   14.649470   -6.331530
H   1   -5.047300   18.468320   -9.539780
H   1   -1.778810   13.122880   -8.782840
H   1   -2.634910   15.062750  -13.496750
H   1   -1.026520   19.181410  -10.814890
H   1    1.722450   11.968410   -6.676490
H   1   -0.725270   19.700050   -4.899970
H   1    0.820750   13.175430   -4.614020
H   1    3.526780   19.663520   -5.706500
H   1   -0.234880   13.765020  -12.622950
H   1    1.843680   15.197380  -14.431320
H   1    5.117890   12.552970   -4.781140
H   1    0.980250   19.662240  -14.522030
H   1    3.222680   20.549730   -2.850690
H   1    1.813810    9.248860  -15.047960
H   1    4.550120   13.202280   -1.241880
H   1    4.282190   15.886380  -15.393670
H   1    1.593730   18.283130  -10.936670
H   1    6.780820   20.569110   -1.100540
H   1    4.484900    9.465400  -10.116640
H   1    2.885640   11.375360   -8.936990
H   1    3.302350   13.704450  -15.853220
H   1    8.414330   12.962730    0.198580
H   1    3.779420   15.096350    6.126610
H   1    3.531220   19.149000  -16.001950
H   1    3.140770   21.523480   -8.796060
H   1    6.846020   21.979510    1.430440
H   1    5.702530   19.655210   -7.161910
H   1   10.284030   20.342110    1.157220
H   1    6.509190    7.764680   -9.610460
H   1    7.669430   10.438500   -4.211670
H   1    8.160400   14.123700  -16.075500
H   1    8.116750   16.392670    1.505220
H   1    7.487040   20.184190  -10.253840
H   1    6.520940   20.898190   -4.716550
H   1    8.013150   19.239250   -3.035310
H   1    9.989430   14.936520    0.074940
H   1    9.573330   18.769540   -9.332380
H   1   10.426990   19.579210   -3.040680
H   1   13.033250   15.009440   -1.224340
H   1   12.742630   19.637520    0.336860
H   1   14.332800   15.158770   -3.412580
O   8   14.375930   18.327090   -3.766900
H   1   -6.628070   18.780140   -7.660320
H   1   -2.161600   12.274930   -6.524960
H   1   -2.740230   15.092200   -9.732380
H   1   -5.560390   17.983430   -4.505390
H   1   -3.121590   12.010150   -2.586680
H   1   -3.122810   18.242630   -5.320140
H   1   -2.661410   19.195110   -1.377560
H   1    1.848770   12.725590    1.743510
H   1   -0.208040   18.665680   -1.290000
H   1    4.459840   12.718420    1.588010
H   1    2.184660   19.729260    2.116730
H   1    3.175440   12.774430    5.301690
H   1    1.688750   20.101560    4.565200
H   1    3.757750   19.359830    6.903050
H   1    6.370120   18.422870    5.705850
H   1   14.043030   19.212920   -3.816640
C   6   -0.151460   10.566850   -0.869230
C   6   -0.163760    9.338690   -1.798330
N   7   -1.183690    8.313510   -1.318340
H   1   -0.392540    9.656560   -2.840410
H   1    0.850620    8.881330   -1.836130
H   1    0.080710   10.233130    0.168300
H   1   -1.172980   11.012320   -0.841620
H   1    1.885730   11.199470   -1.296220
H   1    0.646520   11.942020   -2.342510
H   1   -1.177510    7.508670   -1.944910
H   1   -2.112830    8.734330   -1.314570
H   1   -8.496659   17.579249   -4.418117
H   1   -6.417401   11.870742   -3.126920
H   1   -5.245217   17.512814   -1.051642
H   1   -2.871539   12.604559    0.478323
H   1   -1.815429   18.333567    2.246203
H   1    0.094485   12.752041    3.975522
H   1    0.887496   18.255973    6.414229
H   1   10.777941   14.556496  -12.146869
O   8    5.685533    8.230334  -13.206952
O   8    6.344640   12.254574  -16.849078
O   8    8.879141    9.389062   -7.596310
O   8    9.358044    8.765457  -10.176213
O   8    9.875289   12.197288  -13.512016
O   8    8.685947   11.795969   -6.506199
O   8    8.902672   15.541790  -10.024399
O   8   11.250420   12.023510   -1.489053
O   8   12.852194   15.535337   -6.363152
H   1    5.916919    8.588432  -14.052550
H   1    5.883460   11.872811  -17.582821
H   1    9.463603   10.131427   -7.660403
H   1    8.953732    8.602138  -11.016848
H   1   10.296442   12.771056  -14.136699
H   1    8.060479   11.367446   -7.073621
H   1    8.362018   15.142183  -10.691345
H   1   11.883076   11.796835   -2.156267
H   1   12.507626   15.206016   -7.181461
 $END
!TRAVIS-CI SKIP 
