! A NEO-DFT TEST FILE WHERE THE ELECTRON-PROTON CORRELTATION FUNCTIONAL
! EPC17-2 IS USED IN CONJUNCTION WITH B3LYP FOR ELECTRON EXCHANGE-CORRELATION
! A GRADIENT CALCULATION IS RUN FOR HCN WITH THE STO-3G ELECTRONIC BASIS SET
!
!
! TOTAL NEO-DFT GRADIENT TERMS
!
! UNITS ARE HARTREE/BOHR    E'X               E'Y               E'Z 
!    1 N                0.000112905       0.000000000       0.000000000
!    2 C               -0.012562133       0.000000000       0.000000000
!    3 H                0.012449228       0.000000000       0.000000000
! STEP CPU TIME =     0.17 TOTAL CPU TIME =          6.4 (      0.1 MIN)
! TOTAL WALL CLOCK TIME=          6.9 SECONDS, CPU UTILIZATION IS    94.01%
!
!                         ----------------------
!                         GRADIENT OF THE ENERGY
!                         ----------------------
!
! UNITS ARE HARTREE/BOHR    E'X               E'Y               E'Z 
!    1 N                0.130225218       0.000000000       0.000000000
!    2 C               -0.126699670       0.000000000       0.000000000
!    3 H               -0.003525549       0.000000000       0.000000000
!
!                   MAXIMUM GRADIENT =    0.130225218
!                       RMS GRADIENT =    0.060574879
!
 $CONTRL SCFTYP=RHF RUNTYP=GRADIENT MAXIT=200 DFTTYP=B3LYP
         ICHARG=0 MULT=1 $END
 $SYSTEM MWORDS=100 $END
 $SCF    SOSCF=.F. DIRSCF=.FALSE. DIIS=.T. FDIFF=.F.
          $END
 $DFT    NRAD=96 NLEB=302 NRAD0=96 NLEB0=302 $END
 $INTGRL SCHWRZ=.FALSE. $END
 $NEO    NEOSCF=RONHF BASNUC=DZSPDN NUNIQN=1
         IUNIQN(1)=3 NUMULT=2 EXCH=.T.
         DIRNUC=.F. NEODFT=CS4
         YANGA=2.35 YANGB=2.4 YANGC=6.6
         SYMNUC=.T. QMTOLN=1.0D-05 $END
 $BASIS  GBASIS=STO NGAUSS=3 $END
 $GUESS GUESS=MOREAD NORB=11 $END
 $DATA

 C1
 N           7.0  -1.1462973460   0.0000000000   0.0000000000
 C           6.0   0.0000000000   0.0000000000   0.0000000000
 H           1.0   1.0671667864   0.0000000000   0.0000000000
 $END

 $VEC   
 1  1 9.93936646E-01 3.01226470E-02 8.87978307E-03 0.00000000E+00 0.00000000E+00
 1  2 4.08034573E-04-1.07863554E-02 7.70575816E-03 0.00000000E+00 0.00000000E+00
 1  3-4.39618630E-04
 2  1-5.46840322E-04-7.14652698E-03-1.71358981E-03 0.00000000E+00 0.00000000E+00
 2  2 9.92852370E-01 3.13983083E-02-2.50284680E-03 0.00000000E+00 0.00000000E+00
 2  3-5.72004257E-03
 3  1-2.02120306E-01 6.29022730E-01 2.26847407E-01 0.00000000E+00 0.00000000E+00
 3  2-1.65778621E-01 3.53760749E-01-2.03763865E-01 0.00000000E+00 0.00000000E+00
 3  3 5.95888087E-02
 4  1 8.92590270E-02-3.24303782E-01 7.32265155E-02 0.00000000E+00 0.00000000E+00
 4  2-1.58355430E-01 5.29795349E-01 4.01034554E-01 0.00000000E+00 0.00000000E+00
 4  3 3.88416190E-01
 5  1 1.25273238E-01-6.64088123E-01 6.82272605E-01 0.00000000E+00 0.00000000E+00
 5  2-6.08539051E-02 1.57586140E-01-3.46421468E-01 0.00000000E+00 0.00000000E+00
 5  3-1.56407880E-01
 6  1 0.00000000E+00 0.00000000E+00 0.00000000E+00 6.05051336E-01-2.03630991E-01
 6  2 0.00000000E+00 0.00000000E+00 0.00000000E+00 5.74975828E-01-1.93509031E-01
 6  3 0.00000000E+00
 7  1 0.00000000E+00 0.00000000E+00 0.00000000E+00 2.03630991E-01 6.05051336E-01
 7  2 0.00000000E+00 0.00000000E+00 0.00000000E+00 1.93509031E-01 5.74975828E-01
 7  3 0.00000000E+00
 8  1 0.00000000E+00 0.00000000E+00 0.00000000E+00-7.06155391E-02-8.24063764E-01
 8  2 0.00000000E+00 0.00000000E+00 0.00000000E+00 7.26261880E-02 8.47527480E-01
 8  3 0.00000000E+00
 9  1 0.00000000E+00 0.00000000E+00 0.00000000E+00-8.24063764E-01 7.06155391E-02
 9  2 0.00000000E+00 0.00000000E+00 0.00000000E+00 8.47527480E-01-7.26261880E-02
 9  3 0.00000000E+00
10  1 6.28662448E-02-4.13934817E-01-4.90749280E-01 0.00000000E+00 0.00000000E+00
10  2-1.86086743E-01 1.29444943E+00 2.82252979E-01 0.00000000E+00 0.00000000E+00
10  3-1.16129459E+00
11  1-1.21489334E-01 1.26111585E+00 1.07978357E+00 0.00000000E+00 0.00000000E+00
11  2 6.69946646E-02-7.83128346E-01 1.55763808E+00 0.00000000E+00 0.00000000E+00
11  3-6.78316488E-01
 $END   


!
!TRAVIS-CI SMALL
!

