! A NEO-DFT TEST FILE WHERE THE ELECTRON-PROTON CORRELTATION FUNCTIONAL
! EPC17-2 IS USED IN CONJUNCTION WITH B3LYP FOR ELECTRON EXCHANGE-CORRELATION
! THE SYSTEM IS HCN WITH THE STO-3G ELECTRONIC BASIS SET
!
!          -----------------
!          DENSITY CONVERGED
!          -----------------
!     TIME TO FORM FOCK OPERATORS=       3.3 SECONDS (       0.4 SEC/ITER)
!     TIME TO SOLVE SCF EQUATIONS=       0.0 SECONDS (       0.0 SEC/ITER)
!
! FINAL R-B3LYP ENERGY IS      -92.1387399652 AFTER   9 ITERATIONS
! DFT EXCHANGE + CORRELATION ENERGY =       -10.1561922329
! TOTAL ELECTRON NUMBER             =        13.9999999082
!
!     ---------------------------------------------------------------------
!     PROPERTIES FOR THE B3LYP    DFT FUNCTIONAL (RHF  TYPE) DENSITY MATRIX
!     ---------------------------------------------------------------------
!
!                    -----------------
!                    ENERGY COMPONENTS
!                    -----------------
!
!               NEO WAVEFUNCTION NORMALIZATION =       1.0000000000
!
!                          ONE ELECTRON ENERGY =    -166.3019011360
!                          TWO ELECTRON ENERGY =      55.6991863158
!                           ONE NUCLEUS ENERGY =       4.5865338966
!                           TWO NUCLEUS ENERGY =       0.0000000000
!                MIXED ELECTRON-NUCLEUS ENERGY =      -5.5114589162
!           CLASSICAL NUCLEAR REPULSION ENERGY =      19.3888998746
!                                      ----------------------------
!                                 TOTAL ENERGY =     -92.1387399652
 $CONTRL SCFTYP=RHF RUNTYP=ENERGY MAXIT=200 DFTTYP=B3LYP
         ICHARG=0 MULT=1 $END
 $SYSTEM MWORDS=100 $END
 $SCF    SOSCF=.F. DIRSCF=.FALSE. DIIS=.T. FDIFF=.F.
          $END
 $DFT    NRAD=96 NLEB=302 NRAD0=96 NLEB0=302 $END
 $INTGRL SCHWRZ=.FALSE. $END
 $NEO    NEOSCF=RONHF
         BASNUC=DZSPDN NUNIQN=1
         IUNIQN(1)=3 NUMULT=2 EXCH=.T.
         DIRNUC=.F. NEODFT=CS4
         YANGA=2.35 YANGB=2.4 YANGC=6.6
         SYMNUC=.T. QMTOLN=1.0D-05 $END
 $BASIS  GBASIS=STO NGAUSS=3 $END
 $GUESS GUESS=MOREAD NORB=11 $END
 $GESNMO GUESS=MOREAD NORB=20 $END
 $DATA

 C1
 N           7.0  -1.1462973460   0.0000000000   0.0000000000
 C           6.0   0.0000000000   0.0000000000   0.0000000000
 H           1.0   1.0671667864   0.0000000000   0.0000000000
 $END

 $VEC   
 1  1 9.92880110E-01 3.58032824E-02 1.04615049E-02 0.00000000E+00 0.00000000E+00
 1  2 4.79261938E-04-1.36267182E-02 1.00845098E-02 0.00000000E+00 0.00000000E+00
 1  3-6.56000222E-04
 2  1-8.82432190E-05-9.92425532E-03-3.25631041E-03 0.00000000E+00 0.00000000E+00
 2  2 9.91435679E-01 3.84580792E-02-2.80945919E-03 0.00000000E+00 0.00000000E+00
 2  3-7.94342270E-03
 3  1-2.01008595E-01 6.17211231E-01 2.61107955E-01 0.00000000E+00 0.00000000E+00
 3  2-1.67469048E-01 3.41516143E-01-2.08568984E-01 0.00000000E+00 0.00000000E+00
 3  3 6.40707308E-02
 4  1 7.58180557E-02-2.53509375E-01 1.02269232E-03 0.00000000E+00 0.00000000E+00
 4  2-1.49542456E-01 4.87196205E-01 4.13202070E-01 0.00000000E+00 0.00000000E+00
 4  3 4.37093701E-01
 5  1 0.00000000E+00 0.00000000E+00 0.00000000E+00 2.98366265E-09 6.31248254E-01
 5  2 0.00000000E+00 0.00000000E+00 0.00000000E+00 2.90200669E-09 6.13972419E-01
 5  3 0.00000000E+00
 6  1 0.00000000E+00 0.00000000E+00 0.00000000E+00 6.31248263E-01-2.98366271E-09
 6  2 0.00000000E+00 0.00000000E+00 0.00000000E+00 6.13972410E-01-2.90200652E-09
 6  3 0.00000000E+00
 7  1-1.45069763E-01 7.31707213E-01-6.59722696E-01 0.00000000E+00 0.00000000E+00
 7  2 7.88927281E-02-2.43292169E-01 2.90616635E-01 0.00000000E+00 0.00000000E+00
 7  3 1.48563279E-01
 8  1 0.00000000E+00 0.00000000E+00 0.00000000E+00-2.28720697E-09-8.32553892E-01
 8  2 0.00000000E+00 0.00000000E+00 0.00000000E+00 2.32242837E-09 8.45374597E-01
 8  3 0.00000000E+00
 9  1 0.00000000E+00 0.00000000E+00 0.00000000E+00-8.32553885E-01 2.28720734E-09
 9  2 0.00000000E+00 0.00000000E+00 0.00000000E+00 8.45374604E-01-2.32242895E-09
 9  3 0.00000000E+00
10  1 5.69860125E-02-3.69912495E-01-4.89731640E-01 0.00000000E+00 0.00000000E+00
10  2-1.91296993E-01 1.28977252E+00 3.25406553E-01 0.00000000E+00 0.00000000E+00
10  3-1.15799161E+00
11  1-1.21979339E-01 1.25926227E+00 1.08894325E+00 0.00000000E+00 0.00000000E+00
11  2 7.04441796E-02-8.01431433E-01 1.55680153E+00 0.00000000E+00 0.00000000E+00
11  3-6.55284337E-01
 1  1 9.92880110E-01 3.58032824E-02 1.04615049E-02 0.00000000E+00 0.00000000E+00
 1  2 4.79261938E-04-1.36267182E-02 1.00845098E-02 0.00000000E+00 0.00000000E+00
 1  3-6.56000222E-04
 2  1-8.82432190E-05-9.92425532E-03-3.25631041E-03 0.00000000E+00 0.00000000E+00
 2  2 9.91435679E-01 3.84580792E-02-2.80945919E-03 0.00000000E+00 0.00000000E+00
 2  3-7.94342270E-03
 3  1-2.01008595E-01 6.17211231E-01 2.61107955E-01 0.00000000E+00 0.00000000E+00
 3  2-1.67469048E-01 3.41516143E-01-2.08568984E-01 0.00000000E+00 0.00000000E+00
 3  3 6.40707308E-02
 4  1 7.58180557E-02-2.53509375E-01 1.02269232E-03 0.00000000E+00 0.00000000E+00
 4  2-1.49542456E-01 4.87196205E-01 4.13202070E-01 0.00000000E+00 0.00000000E+00
 4  3 4.37093701E-01
 5  1 0.00000000E+00 0.00000000E+00 0.00000000E+00 2.98366265E-09 6.31248254E-01
 5  2 0.00000000E+00 0.00000000E+00 0.00000000E+00 2.90200669E-09 6.13972419E-01
 5  3 0.00000000E+00
 6  1 0.00000000E+00 0.00000000E+00 0.00000000E+00 6.31248263E-01-2.98366271E-09
 6  2 0.00000000E+00 0.00000000E+00 0.00000000E+00 6.13972410E-01-2.90200652E-09
 6  3 0.00000000E+00
 7  1-1.45069763E-01 7.31707213E-01-6.59722696E-01 0.00000000E+00 0.00000000E+00
 7  2 7.88927281E-02-2.43292169E-01 2.90616635E-01 0.00000000E+00 0.00000000E+00
 7  3 1.48563279E-01
 8  1 0.00000000E+00 0.00000000E+00 0.00000000E+00-2.28720697E-09-8.32553892E-01
 8  2 0.00000000E+00 0.00000000E+00 0.00000000E+00 2.32242837E-09 8.45374597E-01
 8  3 0.00000000E+00
 9  1 0.00000000E+00 0.00000000E+00 0.00000000E+00-8.32553885E-01 2.28720734E-09
 9  2 0.00000000E+00 0.00000000E+00 0.00000000E+00 8.45374604E-01-2.32242895E-09
 9  3 0.00000000E+00
10  1 5.69860125E-02-3.69912495E-01-4.89731640E-01 0.00000000E+00 0.00000000E+00
10  2-1.91296993E-01 1.28977252E+00 3.25406553E-01 0.00000000E+00 0.00000000E+00
10  3-1.15799161E+00
11  1-1.21979339E-01 1.25926227E+00 1.08894325E+00 0.00000000E+00 0.00000000E+00
11  2 7.04441796E-02-8.01431433E-01 1.55680153E+00 0.00000000E+00 0.00000000E+00
11  3-6.55284337E-01
 $END   

 $VECPRO
 1  1 4.06669800E-01 2.28784236E-01-2.84663599E-02 0.00000000E+00 0.00000000E+00
 1  2 1.64885693E-01 0.00000000E+00 0.00000000E+00-8.91697852E-02-2.23756649E-01
 1  3-2.23756650E-01 0.00000000E+00 0.00000000E+00 0.00000000E+00 2.58562787E-01
 1  4 4.70939765E-01 4.70939766E-01 0.00000000E+00 0.00000000E+00 0.00000000E+00
 2  1 1.10040757E-01-1.35376708E-01 1.23516914E+00 0.00000000E+00 0.00000000E+00
 2  2-1.59592494E+00 0.00000000E+00 0.00000000E+00-1.95695967E+00 2.28718227E-01
 2  3 2.28718228E-01 0.00000000E+00 0.00000000E+00 0.00000000E+00 2.53454390E+00
 2  4-3.91116253E-01-3.91116255E-01 0.00000000E+00 0.00000000E+00 0.00000000E+00
 3  1 0.00000000E+00 0.00000000E+00 0.00000000E+00 4.05637360E-05 1.14655722E+00
 3  2 0.00000000E+00-5.31519533E-05-1.50237038E+00 0.00000000E+00 0.00000000E+00
 3  3 0.00000000E+00-6.07181223E-05-1.71623248E+00 0.00000000E+00 0.00000000E+00
 3  4 0.00000000E+00 0.00000000E+00 8.10646751E-05 2.29133944E+00 0.00000000E+00
 4  1 0.00000000E+00 0.00000000E+00 0.00000000E+00 1.14655721E+00-4.05637361E-05
 4  2 0.00000000E+00-1.50237038E+00 5.31519533E-05 0.00000000E+00 0.00000000E+00
 4  3 0.00000000E+00-1.71623248E+00 6.07181223E-05 0.00000000E+00 0.00000000E+00
 4  4 0.00000000E+00 0.00000000E+00 2.29133944E+00-8.10646751E-05 0.00000000E+00
 5  1 0.00000000E+00 0.00000000E+00 0.00000000E+00 0.00000000E+00 0.00000000E+00
 5  2 0.00000000E+00 0.00000000E+00 0.00000000E+00 0.00000000E+00-1.47177713E-11
 5  3 1.46989466E-11 0.00000000E+00 0.00000000E+00-2.00150338E+00 0.00000000E+00
 5  4 1.96453974E-11-1.96218307E-11 0.00000000E+00 0.00000000E+00 2.67170795E+00
 6  1 1.93341872E-10-1.54809409E-10-1.16671647E-10 0.00000000E+00 0.00000000E+00
 6  2 1.26602038E-10 0.00000000E+00 0.00000000E+00 8.28907114E-10-1.73334961E+00
 6  3 1.73334960E+00 0.00000000E+00 0.00000000E+00 1.69838985E-11-1.21810507E-09
 6  4 2.31376478E+00-2.31376478E+00 0.00000000E+00 0.00000000E+00-2.26710946E-11
 7  1 1.45394617E-01-2.39825078E-01 7.77889058E-01 0.00000000E+00 0.00000000E+00
 7  2-1.09254769E+00 0.00000000E+00 0.00000000E+00 5.29615193E-01-1.46606444E+00
 7  3-1.46606444E+00 0.00000000E+00 0.00000000E+00 0.00000000E+00-8.79387143E-01
 7  4 1.75962126E+00 1.75962126E+00 0.00000000E+00 0.00000000E+00 0.00000000E+00
 8  1 0.00000000E+00 0.00000000E+00 0.00000000E+00-8.36281791E-06-1.67307538E+00
 8  2 0.00000000E+00 1.16280195E-05 2.32631552E+00 0.00000000E+00 0.00000000E+00
 8  3 0.00000000E+00-5.26285900E-06-1.05289389E+00 0.00000000E+00 0.00000000E+00
 8  4 0.00000000E+00 0.00000000E+00 6.93527321E-06 1.38747908E+00 0.00000000E+00
 9  1 0.00000000E+00 0.00000000E+00 0.00000000E+00-1.67307538E+00 8.36281789E-06
 9  2 0.00000000E+00 2.32631552E+00-1.16280195E-05 0.00000000E+00 0.00000000E+00
 9  3 0.00000000E+00-1.05289388E+00 5.26285903E-06 0.00000000E+00 0.00000000E+00
 9  4 0.00000000E+00 0.00000000E+00 1.38747908E+00-6.93527325E-06 0.00000000E+00
10  1 1.98872309E-01-2.42762623E-01-1.42828437E+00 0.00000000E+00 0.00000000E+00
10  2 1.98054102E+00 0.00000000E+00 0.00000000E+00-1.30643890E+00-6.99957475E-01
10  3-6.99957475E-01 0.00000000E+00 0.00000000E+00 0.00000000E+00 1.43335725E+00
10  4 6.64281396E-01 6.64281397E-01 0.00000000E+00 0.00000000E+00 0.00000000E+00
11  1-4.17320709E-02-1.13812902E-02-1.23687945E+00 0.00000000E+00 0.00000000E+00
11  2 9.75010551E-01 0.00000000E+00 0.00000000E+00 2.22066253E+00-1.03897154E+00
11  3-1.03897154E+00 0.00000000E+00 0.00000000E+00 0.00000000E+00-1.46975437E+00
11  4 7.25841335E-01 7.25841334E-01 0.00000000E+00 0.00000000E+00 0.00000000E+00
12  1 0.00000000E+00 0.00000000E+00 0.00000000E+00-1.02090728E+00 6.88596311E-05
12  2 0.00000000E+00 7.95181103E-01-5.36345256E-05 0.00000000E+00 0.00000000E+00
12  3 0.00000000E+00 2.25497589E+00-1.52096876E-04 0.00000000E+00 0.00000000E+00
12  4 0.00000000E+00 0.00000000E+00-1.52735015E+00 1.03018923E-04 0.00000000E+00
13  1 0.00000000E+00 0.00000000E+00 0.00000000E+00-6.88596311E-05-1.02090728E+00
13  2 0.00000000E+00 5.36345256E-05 7.95181102E-01 0.00000000E+00 0.00000000E+00
13  3 0.00000000E+00 1.52096876E-04 2.25497589E+00 0.00000000E+00 0.00000000E+00
13  4 0.00000000E+00 0.00000000E+00-1.03018923E-04-1.52735015E+00 0.00000000E+00
14  1 0.00000000E+00 0.00000000E+00 0.00000000E+00 0.00000000E+00 0.00000000E+00
14  2 0.00000000E+00 0.00000000E+00 0.00000000E+00 0.00000000E+00 3.88566568E-10
14  3-3.88570433E-10 0.00000000E+00 0.00000000E+00 2.44102854E+00 0.00000000E+00
14  4-2.67624815E-10 2.67627225E-10 0.00000000E+00 0.00000000E+00-1.68125332E+00
15  1 1.91774596E-10 4.33077534E-11 7.11972626E-10 0.00000000E+00 0.00000000E+00
15  2-5.74912413E-10 0.00000000E+00 0.00000000E+00-8.75111112E-10-2.11399532E+00
15  3 2.11399532E+00 0.00000000E+00 0.00000000E+00 4.48679493E-10 5.48603903E-10
15  4 1.45601154E+00-1.45601154E+00 0.00000000E+00 0.00000000E+00-3.09026822E-10
16  1 1.15507556E-01 3.16363405E-02 2.64801080E+00 0.00000000E+00 0.00000000E+00
16  2-2.02993078E+00 0.00000000E+00 0.00000000E+00 9.54185653E-01-6.73245742E-01
16  3-6.73245742E-01 0.00000000E+00 0.00000000E+00 0.00000000E+00-7.58164147E-01
16  4 4.41090154E-01 4.41090155E-01 0.00000000E+00 0.00000000E+00 0.00000000E+00
17  1 0.00000000E+00 0.00000000E+00 0.00000000E+00 2.76041949E+00-1.18723758E-05
17  2 0.00000000E+00-2.11536485E+00 9.09803982E-06 0.00000000E+00 0.00000000E+00
17  3 0.00000000E+00 9.08669570E-01-3.90812576E-06 0.00000000E+00 0.00000000E+00
17  4 0.00000000E+00 0.00000000E+00-6.75650052E-01 2.90592473E-06 0.00000000E+00
18  1 0.00000000E+00 0.00000000E+00 0.00000000E+00 1.18723758E-05 2.76041949E+00
18  2 0.00000000E+00-9.09803981E-06-2.11536485E+00 0.00000000E+00 0.00000000E+00
18  3 0.00000000E+00 3.90812579E-06 9.08669570E-01 0.00000000E+00 0.00000000E+00
18  4 0.00000000E+00 0.00000000E+00-2.90592475E-06-6.75650052E-01 0.00000000E+00
19  1-1.24302908E+00-3.37073379E-01 2.50098739E-01 0.00000000E+00 0.00000000E+00
19  2-1.19627207E-01 0.00000000E+00 0.00000000E+00 1.42618729E+00 1.39745360E+00
19  3 1.39745360E+00 0.00000000E+00 0.00000000E+00 0.00000000E+00-8.08499802E-01
19  4-7.74653976E-01-7.74653976E-01 0.00000000E+00 0.00000000E+00 0.00000000E+00
20  1 0.00000000E+00 0.00000000E+00 0.00000000E+00 0.00000000E+00 0.00000000E+00
20  2 0.00000000E+00 0.00000000E+00 0.00000000E+00 0.00000000E+00 0.00000000E+00
20  3 0.00000000E+00 0.00000000E+00 0.00000000E+00 0.00000000E+00 0.00000000E+00
20  4 0.00000000E+00 0.00000000E+00 0.00000000E+00 0.00000000E+00 0.00000000E+00
 $END


!
!TRAVIS-CI SMALL
!

