!*** FMO (Gamess) INPUT generated by Facio 16.4.1 ***
! 
! This file should be executed on 1 core sequentially.
! For a parallel execution, GDDI shouldbe used ($gddi ngroup=).
!
!Total energy of the molecule: Eunco+D(3)=     -267.420231157
!Total energy of the molecule: Euncorr(3)=     -268.267574263
!Total energy of the molecule: Edisp  (3)=        0.847343106
!Dipole moment D(xyz),DA(3)=  -64.0016071   15.1269508  -67.5603791   94.2838013
!     (3) MAXIMUM GRADIENT =  0.0405369    RMS GRADIENT = 0.0094095
!

 $CONTRL RUNTYP=GRADIENT NPRINT=-5 LOCAL=POP $END
 $SYSTEM MWORDS=200 $END
 $SCF DIRSCF=.TRUE. NPUNCH=0 $END
 $STATPT NSTEP=200 $END
 $basis gbasis=dftb $end
 $dftb scc=.true. dftb3=.t. dampxh=.t. disp=uff param=3ob-3-1 $end
 $FMOPRP NPRINT=3 $END
! rafo used here is not one of several recommended sets.
 $FMO
      rafo(1)=1.0, 1.0, 0.1
      nbody=3
      MODGRD=48
      MAXCAO=5
      MAXBND=20
      NLAYER=1
      NFRAG=20
      ICHARG(1)=   0,  0,  0,  0,  0,  0,  0,  0,  0,  0,
                   0,  0,  0,  0,  0,  0,  0,  0,  0,  0,
      FRGNAM(1)= Gly-1, Ala-3, Ala-4, Ala-5, Ala-6, 
                 Ala-7, Ala-8, Ala-9, Ala-10, Ala-11, 
                 Ala-12, Ala-13, Ala-14, Ala-15, Ala-16, 
                 Ala-17, Ala-18, Ala-19, Ala-20, Ala-21
      INDAT(1)= 0
                1     -8     11    -16      0
                9     10     17     18     21    -26      0
               19     20     27     28     31    -36      0
               29     30     37     38     41    -46      0
               39     40     47     48     51    -56      0
               49     50     57     58     61    -66      0
               59     60     67     68     71    -76      0
               69     70     77     78     81    -86      0
               79     80     87     88     91    -96      0
               89     90     97     98    101   -106      0
               99    100    107    108    111   -116      0
              109    110    117    118    121   -126      0
              119    120    127    128    131   -136      0
              129    130    137    138    141   -146      0
              139    140    147    148    151   -156      0
              149    150    157    158    161   -166      0
              159    160    167    168    171   -176      0
              169    170    177    178    181   -186      0
              179    180    187    188    191   -196      0
              189    190    197   -212      0
 $END
 $FMOBND
        -8         9
       -18        19
       -28        29
       -38        39
       -48        49
       -58        59
       -68        69
       -78        79
       -88        89
       -98        99
      -108       109
      -118       119
      -128       129
      -138       139
      -148       149
      -158       159
      -168       169
      -178       179
      -188       189
 $END
 $DATA
 FMO calculation : input.xyz
 C1 
 C    6
 O    8
 H    1
 N    7
 $END
 $FMOXYZ
      1      C        -0.1343660000     0.0078450000    -0.0164770000
      2      C        -0.0471350000    -0.1558720000     1.4813370000
      3      O         0.9882770000    -0.5597170000     1.9982970000
      4      H         0.8189980000    -0.2738510000    -0.4629480000
      5      H        -0.3475110000     1.0488330000    -0.2547090000
      6      H        -0.9232800000    -0.6297020000    -0.4114250000
      7      N        -1.1426070000     0.1331890000     2.1840600000
      8      C        -1.1944050000     0.1367920000     3.6512820000
      9      C        -0.6834660000    -1.1615270000     4.3127970000
     10      O        -0.0154110000    -1.0979910000     5.3405620000
     11      H        -1.9498410000     0.4731610000     1.6857860000
     12      H        -0.5509500000     0.9430580000     4.0077770000
     13      C        -2.6299110000     0.4582520000     4.0844830000
     14      H        -2.6766500000     0.5159450000     5.1733700000
     15      H        -3.3130810000    -0.3202160000     3.7418490000
     16      H        -2.9386690000     1.4197900000     3.6718370000
     17      N        -0.9307260000    -2.3306650000     3.7099400000
     18      C        -0.4038930000    -3.6085020000     4.1979000000
     19      C         1.1376490000    -3.6837320000     4.1604390000
     20      O         1.7513500000    -4.1851490000     5.0998690000
     21      H        -1.4867540000    -2.3306680000     2.8711080000
     22      H        -0.7063160000    -3.7350390000     5.2393900000
     23      C        -1.0357760000    -4.7377380000     3.3749120000
     24      H        -0.6841300000    -5.7001960000     3.7504630000
     25      H        -0.7568980000    -4.6447070000     2.3243770000
     26      H        -2.1221590000    -4.7034970000     3.4676820000
     27      N         1.7748700000    -3.1467580000     3.1131010000
     28      C         3.2332040000    -3.0676980000     3.0248930000
     29      C         3.8087540000    -2.0451070000     4.0201890000
     30      O         4.8306070000    -2.3119470000     4.6478230000
     31      H         1.2377860000    -2.6514290000     2.4159570000
     32      H         3.6547570000    -4.0424910000     3.2768650000
     33      C         3.6293370000    -2.7340030000     1.5812760000
     34      H         4.7170650000    -2.7281350000     1.4968420000
     35      H         3.2494300000    -1.7521120000     1.2978800000
     36      H         3.2289550000    -3.4878240000     0.9024010000
     37      N         3.1285110000    -0.9106210000     4.2255170000
     38      C         3.4921440000     0.0531320000     5.2665760000
     39      C         3.4017820000    -0.5554930000     6.6816620000
     40      O         4.3137400000    -0.3775910000     7.4868390000
     41      H         2.3116070000    -0.7281710000     3.6559360000
     42      H         4.5299240000     0.3535770000     5.1111670000
     43      C         2.6080580000     1.2976540000     5.1207840000
     44      H         2.9187030000     2.0491810000     5.8479560000
     45      H         1.5636740000     1.0444440000     5.3001740000
     46      H         2.7138950000     1.7127610000     4.1176690000
     47      N         2.3481190000    -1.3273070000     6.9713600000
     48      C         2.2090390000    -2.0687830000     8.2244470000
     49      C         3.3081350000    -3.1337280000     8.4024310000
     50      O         3.8861560000    -3.2380590000     9.4825250000
     51      H         1.5964830000    -1.3948640000     6.2946340000
     52      H         2.3012950000    -1.3663530000     9.0544710000
     53      C         0.8071600000    -2.6884570000     8.2746870000
     54      H         0.6716650000    -3.2053160000     9.2256320000
     55      H         0.6795040000    -3.4025360000     7.4609180000
     56      H         0.0529040000    -1.9053080000     8.1875110000
     57      N         3.6487830000    -3.8825230000     7.3468280000
     58      C         4.7632680000    -4.8315450000     7.3677120000
     59      C         6.1194060000    -4.1432350000     7.6224660000
     60      O         6.9102840000    -4.6273350000     8.4303450000
     61      H         3.1034810000    -3.8037410000     6.4958850000
     62      H         4.6006000000    -5.5361700000     8.1849310000
     63      C         4.7649670000    -5.6187980000     6.0518160000
     64      H         5.5544180000    -6.3709120000     6.0790830000
     65      H         4.9423240000    -4.9488620000     5.2106480000
     66      H         3.8046700000    -6.1186310000     5.9179340000
     67      N         6.3745380000    -2.9903510000     6.9941310000
     68      C         7.5682350000    -2.1828890000     7.2454430000
     69      C         7.6235470000    -1.6513740000     8.6907560000
     70      O         8.6735910000    -1.7183710000     9.3276290000
     71      H         5.7116600000    -2.6581480000     6.3019760000
     72      H         8.4482020000    -2.8108550000     7.0972930000
     73      C         7.6149730000    -1.0433650000     6.2201960000
     74      H         8.5258690000    -0.4610540000     6.3641390000
     75      H         6.7515190000    -0.3891020000     6.3418990000
     76      H         7.6134700000    -1.4546280000     5.2098950000
     77      N         6.4974310000    -1.1818380000     9.2391680000
     78      C         6.3974400000    -0.7718930000    10.6402160000
     79      C         6.6492220000    -1.9407450000    11.6130650000
     80      O         7.3796900000    -1.7792590000    12.5894500000
     81      H         5.6706510000    -1.1012130000     8.6567610000
     82      H         7.1620420000    -0.0182340000    10.8350730000
     83      C         5.0234810000    -0.1298280000    10.8675460000
     84      H         4.9545560000     0.2283850000    11.8953740000
     85      H         4.2318770000    -0.8581300000    10.6909920000
     86      H         4.8925170000     0.7138280000    10.1885930000
     87      N         6.1073910000    -3.1302390000    11.3296560000
     88      C         6.3757160000    -4.3423730000    12.1032340000
     89      C         7.8569960000    -4.7622640000    12.0396030000
     90      O         8.4426010000    -5.0977130000    13.0677880000
     91      H         5.4740220000    -3.1982940000    10.5398910000
     92      H         6.1398180000    -4.1439670000    13.1499180000
     93      C         5.4479960000    -5.4577120000    11.6061980000
     94      H         5.6014940000    -6.3543840000    12.2077620000
     95      H         5.6602890000    -5.6890500000    10.5622850000
     96      H         4.4078830000    -5.1423600000    11.6988330000
     97      N         8.4884030000    -4.6901600000    10.8626810000
     98      C         9.9214340000    -4.9376190000    10.7025380000
     99      C        10.7823160000    -3.9200230000    11.4763090000
    100      O        11.7394400000    -4.3091790000    12.1437570000
    101      H         7.9481790000    -4.4575600000    10.0358370000
    102      H        10.1485370000    -5.9261690000    11.1047040000
    103      C        10.2550440000    -4.9413040000     9.2057450000
    104      H        11.3112770000    -5.1757160000     9.0684220000
    105      H        10.0479670000    -3.9638610000     8.7698180000
    106      H         9.6550770000    -5.6956840000     8.6949970000
    107      N        10.4220850000    -2.6322270000    11.4484880000
    108      C        11.0807140000    -1.5953900000    12.2429270000
    109      C        10.9256990000    -1.8307910000    13.7580520000
    110      O        11.8990550000    -1.7066640000    14.4996830000
    111      H         9.6562610000    -2.3560280000    10.8427570000
    112      H        12.1485760000    -1.6150800000    12.0197070000
    113      C        10.5283610000    -0.2283080000    11.8213500000
    114      H        11.0469400000     0.5590110000    12.3696430000
    115      H         9.4614630000    -0.1686990000    12.0370200000
    116      H        10.6864460000    -0.0793380000    10.7523630000
    117      N         9.7353110000    -2.2278280000    14.2210700000
    118      C         9.4998510000    -2.6054940000    15.6147940000
    119      C        10.3186100000    -3.8421750000    16.0339730000
    120      O        10.9125620000    -3.8474700000    17.1110630000
    121      H         8.9523900000    -2.2658320000    13.5766460000
    122      H         9.8118310000    -1.7784510000    16.2544800000
    123      C         7.9957210000    -2.8259940000    15.8165130000
    124      H         7.7988210000    -3.0584890000    16.8636930000
    125      H         7.6484500000    -3.6530570000    15.1970610000
    126      H         7.4496560000    -1.9215020000    15.5452390000
    127      N        10.4100870000    -4.8638790000    15.1757360000
    128      C        11.2583460000    -6.0334600000    15.4044910000
    129      C        12.7543600000    -5.6694020000    15.4672480000
    130      O        13.4633120000    -6.1464290000    16.3515170000
    131      H         9.8599770000    -4.8320260000    14.3236930000
    132      H        10.9910440000    -6.4712730000    16.3675260000
    133      C        10.9721120000    -7.0698700000    14.3110560000
    134      H        11.5609150000    -7.9686330000    14.4980400000
    135      H        11.2356480000    -6.6691730000    13.3321390000
    136      H         9.9132080000    -7.3316860000    14.3177210000
    137      N        13.2317390000    -4.7863790000    14.5833270000
    138      C        14.5984370000    -4.2657930000    14.6249960000
    139      C        14.8798780000    -3.4566910000    15.9063120000
    140      O        15.9296850000    -3.6307790000    16.5230580000
    141      H        12.6189530000    -4.4622600000    13.8423610000
    142      H        15.2903200000    -5.1094470000    14.6163630000
    143      C        14.8441490000    -3.4313400000    13.3620700000
    144      H        15.8759160000    -3.0780890000    13.3539860000
    145      H        14.1734790000    -2.5721880000    13.3404310000
    146      H        14.6714730000    -4.0429420000    12.4755020000
    147      N        13.9352830000    -2.6194550000    16.3487410000
    148      C        14.0323850000    -1.8968670000    17.6168820000
    149      C        14.0669860000    -2.8450590000    18.8311480000
    150      O        14.8761200000    -2.6493850000    19.7359810000
    151      H        13.1105030000    -2.4723970000    15.7764440000
    152      H        14.9656910000    -1.3316340000    17.6217680000
    153      C        12.8690490000    -0.9017340000    17.7065590000
    154      H        12.9585480000    -0.3188630000    18.6239580000
    155      H        11.9171830000    -1.4328240000    17.7140600000
    156      H        12.8949100000    -0.2246190000    16.8517810000
    157      N        13.2455890000    -3.9006530000    18.8375090000
    158      C        13.2805990000    -4.9396380000    19.8670680000
    159      C        14.6143900000    -5.7120600000    19.8761380000
    160      O        15.1807240000    -5.9431250000    20.9423200000
    161      H        12.5615140000    -3.9874800000    18.0933620000
    162      H        13.1761970000    -4.4635300000    20.8432210000
    163      C        12.0838150000    -5.8759690000    19.6599020000
    164      H        12.0683050000    -6.6267930000    20.4507460000
    165      H        12.1586670000    -6.3772200000    18.6947680000
    166      H        11.1560150000    -5.3035220000    19.6955120000
    167      N        15.1532480000    -6.0607800000    18.7026750000
    168      C        16.4703040000    -6.6855870000    18.5775260000
    169      C        17.6058030000    -5.7737790000    19.0816310000
    170      O        18.5078750000    -6.2461690000    19.7680320000
    171      H        14.6224740000    -5.8912410000    17.8551540000
    172      H        16.4851400000    -7.5867980000    19.1927020000
    173      C        16.6812820000    -7.0982810000    17.1157320000
    174      H        17.6375650000    -7.6134900000    17.0182890000
    175      H        16.6838420000    -6.2185390000    16.4721370000
    176      H        15.8818220000    -7.7707020000    16.8020960000
    177      N        17.5445850000    -4.4672130000    18.8006470000
    178      C        18.4828350000    -3.4872980000    19.3483740000
    179      C        18.3644570000    -3.3504590000    20.8796590000
    180      O        19.3804150000    -3.2977460000    21.5695110000
    181      H        16.8136970000    -4.1379250000    18.1797450000
    182      H        19.4987740000    -3.8228570000    19.1331740000
    183      C        18.2581740000    -2.1454010000    18.6403280000
    184      H        18.9859160000    -1.4178320000    19.0012620000
    185      H        17.2533380000    -1.7749130000    18.8435480000
    186      H        18.3836050000    -2.2700820000    17.5640420000
    187      N        17.1418130000    -3.3438640000    21.4236030000
    188      C        16.8928190000    -3.3301090000    22.8679310000
    189      C        17.3733720000    -4.6084470000    23.5876150000
    190      O        17.7222600000    -4.5511840000    24.7645090000
    191      H        16.3386540000    -3.3414680000    20.8046810000
    192      H        17.4449140000    -2.4957250000    23.3031240000
    193      C        15.3963680000    -3.0889550000    23.1008290000
    194      H        15.2035930000    -3.0103700000    24.1713590000
    195      H        14.8162510000    -3.9180640000    22.6954920000
    196      H        15.0897810000    -2.1620800000    22.6147100000
    197      N        17.4256140000    -5.7460410000    22.8866980000
    198      C        18.0153050000    -6.9953230000    23.3734220000
    199      C        19.5619480000    -7.0333370000    23.3070420000
    200      O        20.1641010000    -8.0064520000    23.7626690000
    201      H        17.0408970000    -5.7457150000    21.9505960000
    202      H        17.7427010000    -7.1198000000    24.4222910000
    203      C        17.3934240000    -8.1507710000    22.5771500000
    204      H        17.7470180000    -9.1016660000    22.9770990000
    205      H        17.6818460000    -8.0785950000    21.5284350000
    206      H        16.3063540000    -8.1136890000    22.6564890000
    207      N        20.2124600000    -6.0010090000    22.7504440000
    208      C        21.6623930000    -5.9102120000    22.6150260000
    209      H        19.6612480000    -5.2321340000    22.3891270000
    210      H        21.9296970000    -4.9458060000    22.1807880000
    211      H        22.0192440000    -6.7124500000    21.9674890000
    212      H        22.1294040000    -6.0094240000    23.5962020000
 $END
       
