!  METHANOL IN WATER
!  B3LYP/6-31+G*/SVPE/0.001
!                                                           AU          KCAL/MOL
!  EGAS = INTERNAL ENERGY OF SOLUTE IN GAS PHASE      -115.65822031
!
!  EINT = INTERNAL ENERGY OF SOLUTE IN SOLUTION       -115.65692318
!    DINT  = EINT-EGAS = SOLUTE  POLARIZATION ENERGY     0.00129714      0.81397
!      [SURFACE POLARIZATION ENERGY  /2]                -0.01072795     -6.73189
!      [VOLUME  POLARIZATION ENERGY  /2]                 0.00011019      0.06914
!    DGRXN = ERXNFLD/2 = SOLVENT POLARIZATION ENERGY    -0.01061776     -6.66275
!  SVPE     DELTAG = DINT+DGRXN                         -0.00932063     -5.84878
!  SVPE     GTOTAL = EINT+DGRXN                       -115.66754094
!
 $contrl scftyp=rhf dfttyp=b3lyp mult=1 runtyp=energy
 coord=unique units=angs maxit=30 icharg=0 $end
 $system memory=80000000 $end
 $basis  gbasis=n31 ngauss=6 ndfunc=1 diffsp=.t.  $end
 $dft method=grid nrad=96 nleb=1202 nrad0=96 nleb0=1202 $end
 $svp nvlpl=3 rhoiso=0.001 dielst=78.36   nptleb=1202
      egas=-115.6582203149 $end
 $guess guess=moread norb=46 $end
 $DATA  
methanol
C1
O           8.0     -0.0477570000     -0.7653790000      0.0000000000
C           6.0     -0.0477570000      0.6636610000      0.0000000000
H           1.0      0.9030490000     -1.0235310000      0.0000000000
H           1.0     -1.1002690000      0.9702990000      0.0000000000
H           1.0      0.4329080000      1.0971480000      0.8950820000
H           1.0      0.4329080000      1.0971480000     -0.8950820000
 $END
 - meoh_gas vecs -
--- CLOSED SHELL ORBITALS --- GENERATED AT Tue Jul 24 10:56:37 2018
methanol                                                                        
E(R-B3LYP)=     -115.6582203149, E(NUC)=   39.9602331182,   14 ITERS
 $VEC   
 1  1 9.92641460E-01 2.55044278E-02 9.93867863E-04 6.48270661E-04-1.74721912E-10
 1  2 1.38365387E-02-6.81515994E-04-3.98047258E-04 9.78825317E-11-5.12585036E-03
 1  3 5.33484583E-04-4.41151366E-04-4.58540839E-11-8.45414391E-03-8.62779385E-03
 1  4-8.37064419E-03 4.19833669E-06 0.00000000E+00 0.00000000E+00-5.20296049E-05
 1  5-4.39062132E-05 8.34361019E-06-3.33259627E-04 0.00000000E+00 5.34611117E-05
 1  6 1.72048260E-04 7.86937150E-05-3.78335130E-11 1.88837877E-03-1.50452337E-04
 1  7-1.08041023E-03 1.78097043E-11-1.11801648E-04 3.73075459E-04-9.56968132E-05
 1  8-3.98004142E-05 0.00000000E+00 0.00000000E+00 3.60572314E-04-4.77410404E-04
 1  9 4.82922707E-05 2.32537913E-04 2.51387097E-05 6.18841332E-05 2.51386849E-05
 1 10 6.18841049E-05
 2  1-1.05264121E-05 1.77484867E-04-1.46552589E-05-8.46053540E-05 0.00000000E+00
 2  2 4.79708492E-04 1.11765869E-04 4.12628638E-04-3.01113694E-11 6.54991693E-03
 2  3 4.05389376E-04 2.39967609E-03-1.38086654E-10 2.23211882E-04-4.14788297E-04
 2  4 1.87008390E-04 1.36465780E-06 0.00000000E+00 2.01457565E-11 9.93023593E-01
 2  5 4.95455564E-02 4.06585216E-05-8.57973318E-04-8.70295015E-10-1.73120367E-02
 2  6 1.23146706E-04 1.34138730E-03 7.19607376E-10-2.78688065E-03-3.94878591E-05
 2  7 7.12397287E-04 7.55607668E-11-8.91155034E-03-8.87656886E-03-8.92931418E-03
 2  8 7.99438151E-06 3.25498783E-11 6.78515502E-11 2.10937487E-05-6.81047270E-04
 2  9-8.57075081E-05 2.69216970E-03-1.08939456E-04 2.50343614E-03-1.08939874E-04
 2 10 2.50343705E-03
 3  1-2.03504015E-01 4.53899297E-01 9.10884100E-02 7.36612851E-02-8.19537156E-09
 3  2 4.40130325E-01 4.89436905E-02 3.87269936E-02-3.58344535E-08-1.14495710E-03
 3  3 1.12823362E-02-6.99594258E-03-3.65326117E-08 1.56245045E-02 8.49119892E-03
 3  4-1.11282578E-02-2.69772592E-03-9.52840041E-10-8.32111863E-09-7.30534291E-02
 3  5 1.35904036E-01 5.60274326E-03-1.01863689E-01-2.93577629E-08 6.31990059E-02
 3  6 6.84367338E-03 3.99824101E-03 1.65935351E-07 1.87945925E-02 9.75480807E-04
 3  7-1.15536937E-02 4.94212984E-08-6.82937069E-03 1.94126775E-02-7.97303469E-03
 3  8-1.97072278E-03 1.23467703E-08 1.10555287E-08 1.29044789E-01-2.38786226E-02
 3  9 2.44675490E-02 6.08129039E-03 2.39553245E-02-5.77875236E-03 2.39554032E-02
 3 10-5.77844187E-03
 4  1 6.03555446E-02-1.39483290E-01-1.12234654E-01 1.71535937E-01-2.28723386E-09
 4  2-1.78789950E-01-5.74302785E-02 7.72526446E-02-1.81299420E-07-2.93307324E-02
 4  3-6.55242326E-03-2.44057951E-03-2.69114616E-07-1.60289991E-02 1.74114942E-02
 4  4 1.47615294E-03 7.05781236E-03 2.00219660E-09-3.94273711E-08-1.81217794E-01
 4  5 3.60823665E-01-2.22963013E-02 6.75184773E-02-2.15270857E-07 3.59706634E-01
 4  6 2.12820635E-03 3.04122412E-02 1.28321980E-06 2.07100568E-02 3.87055286E-05
 4  7 3.79882681E-03 3.87093795E-07 3.14070303E-03-1.06473810E-02 1.64471949E-03
 4  8 3.56350719E-03 7.77893075E-08 4.90337386E-08-1.13511683E-01-2.01843207E-02
 4  9 1.42191750E-01 3.21733909E-02 1.32939615E-01 2.71357653E-02 1.32940193E-01
 4 10 2.71382876E-02
 5  1 4.02031411E-02-9.56766621E-02 3.62288877E-01-2.34359275E-01-8.03781578E-08
 5  2-1.37510018E-01 1.90318655E-01-1.15682842E-01-2.31359642E-07-1.15617014E-02
 5  3 1.14029333E-02-2.60463283E-03-2.94613960E-07 2.81423779E-02-1.41084240E-02
 5  4-3.19212154E-03 2.47158233E-03-6.58282053E-09-4.00656718E-08-2.60147950E-02
 5  5 4.48513290E-02 1.97067644E-01 2.38273031E-01-3.70213816E-07 8.65801626E-02
 5  6 9.13891949E-02 7.83430411E-02 1.32131711E-06 2.02949180E-02 1.39390938E-02
 5  7 4.67518813E-03 4.16954260E-07 3.08968059E-03-2.01033171E-02 1.60406559E-02
 5  8-6.20588131E-03 5.42285841E-08 3.65285740E-08 2.09936074E-01 1.14422561E-01
 5  9-3.58286713E-02-1.40333743E-02 1.16870684E-01 5.44316596E-02 1.16871430E-01
 5 10 5.44345840E-02
 6  1-1.34042974E-08-2.46054637E-07 2.37551964E-07-3.50240864E-07 2.65510512E-01
 6  2 8.59190368E-07 2.29023139E-07 4.77331114E-07 1.57521197E-01-9.52551169E-07
 6  3-1.52653619E-07-9.28078001E-07 1.81315456E-02-7.75178398E-08-9.34279443E-08
 6  4-1.15560091E-07 2.00616711E-08 1.16652714E-02 1.51820217E-02 1.02907756E-07
 6  5 1.05977944E-06-3.54014369E-08 5.19980890E-07 4.23357869E-01-5.99729085E-06
 6  6-1.46381794E-06-1.46178714E-06 1.78444519E-01-2.15127654E-06-4.00108775E-07
 6  7-2.48081644E-07 2.29919578E-02 2.11569270E-07 1.12189121E-07 2.75578681E-08
 6  8-6.44112619E-08 1.75341639E-02 6.15201382E-03 6.40049413E-08 1.07662056E-06
 6  9 2.21367566E-07 1.59896202E-06 2.02560716E-01 1.45949413E-01-2.02560060E-01
 6 10-1.45941049E-01
 7  1 3.30416916E-02-6.83185858E-02 9.67160094E-02 3.78501697E-01 2.04331105E-07
 7  2-1.33650559E-01 5.59443095E-02 2.09203971E-01 7.28444943E-08-1.62959352E-03
 7  3 3.46910668E-04 4.07814794E-02-6.70695226E-08-2.12447786E-03 1.17520960E-02
 7  4-2.01400842E-03 2.65047255E-02 7.36216268E-09-1.00549014E-09-4.26292210E-03
 7  5 1.31903201E-02 3.15135864E-01-2.56288991E-01 2.59787028E-07-8.52843715E-03
 7  6 1.66093688E-01-9.85112722E-02 4.91618239E-07-2.60234648E-02 2.49120885E-02
 7  7-2.70084732E-03 1.40732465E-07-2.27077173E-02 2.10887490E-02 1.75755946E-04
 7  8 4.33300576E-03 1.63832342E-08 2.27855777E-08-3.94145249E-02-3.09559803E-02
 7  9-2.26678904E-01-1.45825719E-01 2.65716921E-02 9.49580625E-03 2.65715382E-02
 7 10 9.49631995E-03
 8  1 6.15047564E-02-1.34336798E-01 3.84251267E-01 2.29293271E-01-2.13759470E-07
 8  2-2.64108312E-01 2.33455382E-01 1.35518800E-01 7.26849929E-08-6.71185389E-02
 8  3 4.97197463E-02 3.80194459E-02 3.06604019E-07 2.43488947E-02 1.93319713E-03
 8  4-6.29606953E-03 1.05509794E-02-9.38250349E-09 2.66364672E-08-1.22607644E-02
 8  5 2.91561346E-02-2.80667526E-01-1.35503518E-01 2.09860878E-08 2.96478094E-02
 8  6-1.12869559E-01-5.47824530E-02-1.66806701E-06-2.88725559E-03-2.47898386E-02
 8  7-1.02973601E-02-5.06010852E-07 1.15362214E-02 5.22790865E-03-1.71283439E-02
 8  8-2.60126867E-02-6.25350116E-08-4.10663092E-08 1.53736462E-01 1.31711596E-01
 8  9 1.86722416E-01 1.76797058E-01-1.17219200E-01-1.23026888E-01-1.17219593E-01
 8 10-1.23030075E-01
 9  1 2.53736069E-08 1.46995337E-07 4.52821603E-08 1.04341545E-07 5.92069726E-01
 9  2-6.74232288E-07-7.86097379E-08-4.30581742E-07 4.07317949E-01 5.76819593E-07
 9  3 6.99769818E-08 7.58013759E-07 1.30834514E-01 8.13658928E-08 6.53943980E-08
 9  4 7.30040844E-08-2.27088022E-08 2.28189117E-02 1.04414487E-02-1.18007928E-07
 9  5-7.41605567E-07-1.98019183E-07-2.14340764E-07-1.83184101E-01 4.93710354E-06
 9  6 1.18595756E-06 1.35731543E-06-7.42822272E-02 1.93248589E-06 3.77513181E-07
 9  7 2.14964566E-07-3.87224613E-02-1.32697300E-07-9.66233215E-08-3.28596389E-08
 9  8 3.23692481E-08-1.12987800E-02-3.48775807E-02 1.04075148E-07-6.55462013E-07
 9  9 5.02703810E-08-1.06632097E-06-1.47409204E-01-1.77904371E-01 1.47408733E-01
 9 10 1.77897130E-01
10  1 4.68978749E-02-1.17770964E-01-1.45941152E-01 2.35743258E-02 4.33847295E-08
10  2-3.43937947E-01-2.07953471E-01-2.58170808E-02 1.96036770E-08-1.42289918E+00
10  3-8.76536247E-02-3.07524509E-01 1.54107945E-07-6.68020290E-03-5.00834553E-03
10  4 9.94893862E-03-1.11584553E-03 1.63165320E-09 8.55810568E-09 3.04460571E-02
10  5-1.01740933E-01-4.02840969E-02-1.32032251E-01 2.33262208E-07-3.74874664E-02
10  6-1.70621050E-02-3.44079872E-01 1.52222755E-07 1.76361571E+00 3.63816662E-01
10  7-6.82674329E-01-1.11957977E-06 5.36589401E-03-8.16332932E-03-2.65810897E-03
10  8 3.15196227E-03 9.94418526E-09 9.77605758E-09 6.59380852E-02 4.92314684E-01
10  9 1.16642487E-02 6.61870377E-02 4.72712660E-03-3.27329477E-02 4.72710935E-03
10 10-3.27332687E-02
11  1-3.55063089E-02 7.83386059E-02 7.25730051E-02 9.53985710E-02-2.79523044E-08
11  2 2.88861082E-01 9.68158627E-02 1.03780560E-01-1.59793052E-07 2.41560210E-01
11  3-3.27887619E-02-4.57138957E-03 6.37366889E-07 1.52474038E-03-1.16916590E-02
11  4-6.26157551E-03 4.46755363E-03-2.95204234E-09 9.93981702E-09 7.25011551E-02
11  5-1.53803348E-01 8.18240143E-04-1.05130595E-02 4.40954673E-07-5.34217229E-01
11  6 7.24616793E-04 4.54251479E-02 5.17011523E-07 6.61300692E-01-1.02054948E-01
11  7 9.36472424E-01-2.05176795E-06-1.08719406E-02 2.28721761E-02-7.77172021E-03
11  8-2.51251923E-03 1.92769220E-08 5.88322168E-09-3.56257738E-02-1.71182165E-01
11  9 1.83891756E-03-8.62110235E-02 5.47327716E-03-4.25372584E-02 5.47330046E-03
11 10-4.25372180E-02
12  1-1.46321924E-02 5.15890248E-02-4.54824904E-02 1.87327000E-02-2.36978042E-07
12  2 4.83035359E-02-2.71312203E-02 5.89620273E-02 5.34428692E-08 4.39930414E-01
12  3-3.72700780E-01 1.70885768E-01-1.24674650E-06 1.95939023E-03 7.65884686E-03
12  4 1.23020981E-03-7.26492388E-03-2.88571655E-09-3.46777303E-08-2.59467286E-03
12  5 2.27780599E-02-2.00250182E-01 4.88063732E-02-1.08413261E-06-3.39645066E-02
12  6-1.80597190E-01 1.74086402E-01-1.38902753E-06-6.43129008E-01 1.22264579E+00
12  7 4.56899325E-01 6.79336867E-06 8.55892428E-03 5.54854368E-03-1.09405621E-02
12  8 1.03852501E-03-6.56961053E-08-2.24150719E-08 9.52081588E-03 2.17283755E-01
12  9 1.28145961E-02 7.04713251E-02-1.36131551E-02-7.97289916E-02-1.36129380E-02
12 10-7.97285399E-02
13  1 8.26097543E-08-2.36980903E-07 1.32796762E-07 6.72475975E-08-3.43407010E-02
13  2-4.41486603E-07-9.86072252E-08-1.89314064E-07 1.88986087E-02-2.69417083E-06
13  3 1.77460426E-06-1.05173770E-06-2.52483775E-01 4.45534180E-09-3.35794662E-08
13  4 1.68428267E-08 4.22151454E-08-3.34754287E-04-7.17740211E-03 8.98794409E-08
13  5-5.89278364E-07 1.15184754E-06-3.89149161E-07-2.19186496E-01 1.05391098E-06
13  6 1.87632190E-06-5.09794216E-07-2.54491551E-01 6.47004122E-06-6.13140148E-06
13  7-1.20593697E-06 1.28125363E+00-8.77246307E-08-3.49155098E-08 3.63354251E-08
13  8 1.39831504E-09-1.12921127E-02-2.58396038E-03-1.01603203E-08-8.67379590E-07
13  9-4.51268379E-08-2.73349048E-07-1.78618183E-02-5.51050495E-02 1.78618972E-02
13 10 5.51023640E-02
14  1 4.35263210E-02-3.95395905E-02-2.31751840E-01 1.00630780E-01-1.16503286E-07
14  2-5.74579982E-01-3.78203378E-01 2.63000970E-01-1.17130137E-07 1.39224715E+00
14  3 8.53565434E-01-6.98688502E-01 3.65148393E-07 3.34102800E-03 4.90386983E-02
14  4 2.27812359E-02-3.26036460E-03-2.78753545E-09 1.75345107E-08-4.59339294E-02
14  5 7.51310887E-02 4.41959261E-02-4.24306032E-03 3.40647873E-07 6.61199049E-01
14  6-6.28497951E-02 2.43097961E-01-3.93613078E-08-7.38906978E-01-5.40902190E-01
14  7 1.02869605E+00-5.98424166E-07-1.00262862E-02-2.25427887E-03-9.46467394E-03
14  8 2.51194350E-03-3.03313282E-08-2.62922074E-08 1.09952007E-01 3.13990042E-01
14  9-6.36740397E-02-2.36175761E-01-3.08876715E-02-2.72918385E-01-3.08875005E-02
14 10-2.72919028E-01
15  1 1.66450464E-02 1.10087811E-02-2.22055075E-01-1.30620721E-01-5.03393429E-07
15  2-4.11905884E-01-4.09682413E-01-1.90176551E-01-7.32017781E-07 8.77324275E-01
15  3 1.34306233E-01 1.14825451E+00-1.56666422E-07 1.63115552E-02 6.72833964E-03
15  4 1.53238660E-02-1.58682440E-03-4.55564918E-08 4.19668670E-08 2.87879249E-02
15  5-4.61853089E-03 2.23717862E-01-6.40091503E-02 1.44287045E-06-7.79979382E-01
15  6 8.66129390E-01-7.13792037E-02 3.55303598E-06-9.31754309E-01 1.04697514E-02
15  7 3.62266113E-01 1.05606330E-06 3.25142475E-02-7.35374126E-03 1.39996129E-03
15  8 1.77071707E-03-1.13140914E-07-3.36093462E-08 7.16337015E-02 6.25875082E-01
15  9 1.08893339E-01 1.22426674E+00-2.52290706E-02-4.09266384E-01-2.52280754E-02
15 10-4.09258694E-01
16  1 6.28792655E-03-1.52575302E-02 9.69193321E-02-3.95857661E-02-2.83260893E-06
16  2 1.31987679E-03 9.46670403E-02-1.45991303E-02-4.69663496E-06-1.13326371E+00
16  3-1.07928455E+00-9.74599635E-01 4.01805470E-06 5.00612111E-03 1.34589521E-02
16  4-6.78025920E-03 1.36311895E-02-2.28257615E-07 1.10947564E-07-5.65915029E-02
16  5 4.44345914E-02 2.51849292E-01-2.83150158E-02 5.69185250E-06 1.11260698E+00
16  6 1.14060228E+00-1.36500451E-01 1.62360217E-05 7.11548541E-01 8.76780582E-01
16  7 6.00648517E-02 4.02906190E-06 1.25851424E-02-1.04235939E-02-3.31180572E-02
16  8-7.00681177E-03-4.42676280E-07-1.48614552E-07-8.03669196E-02 1.70999033E-01
16  9 1.14008399E-01 1.26138809E+00-9.63279260E-02-8.92526097E-01-9.63240258E-02
16 10-8.92487467E-01
17  1 1.32187757E-06-1.56252513E-06 1.41143791E-06-5.23904620E-06 2.08331982E-01
17  2-1.72311669E-05 2.85263331E-06-7.09795622E-06 3.76678063E-01 1.17334507E-05
17  3-1.56600503E-05-1.50859802E-05-4.16135646E-01 6.23513117E-07 8.72668600E-07
17  4 4.93352619E-07 9.66153593E-08 1.67937669E-02-3.34167679E-03-9.65879891E-07
17  5 3.45246758E-06 4.02622119E-06-6.33360497E-06-3.54633912E-01 2.18147824E-06
17  6 1.29391640E-05-2.14322259E-05-1.20152236E+00-1.73265330E-05 1.17286950E-05
17  7 1.68813539E-05-3.00199902E-01 7.27768232E-07-4.85383215E-07-9.45651424E-08
17  8-1.87877363E-07 2.52651137E-02 6.36450019E-03-1.06603719E-06 6.82374900E-07
17  9 2.18127400E-06 2.54753757E-05 1.15011155E-01 1.51647748E+00-1.15013656E-01
17 10-1.51646950E+00
18  1 9.09482042E-02-8.65486875E-02 6.38779150E-02-3.17207101E-01-3.96528640E-06
18  2-1.27794918E+00 1.91509784E-01-5.48733157E-01-7.59202289E-06 1.80818922E+00
18  3-1.31271999E-01-1.40920978E-01 1.68406117E-05 4.73736134E-02 5.41357180E-02
18  4 4.95833132E-02-1.09272852E-02-2.21434743E-07-7.39035331E-08-3.84749926E-02
18  5 1.10743620E-01-6.79214567E-02-4.44099681E-01 3.69978896E-06 3.67512654E-02
18  6-2.64294793E-01-1.19486956E+00 1.22635166E-05-1.34076702E+00 1.44546042E-02
18  7 1.07914547E+00-1.88256402E-06 1.88517279E-02-3.51582916E-02 2.64656421E-02
18  8-2.58145815E-05-2.29397793E-07-4.04452883E-08 5.04664310E-03-2.91848124E-01
18  9 1.86467621E-02-3.15319349E-02 3.84220623E-02 6.27053863E-01 3.84238857E-02
18 10 6.27089695E-01
19  1-6.24863210E-07 4.27581777E-07-6.09511185E-07 1.92878026E-06-1.81937493E-01
19  2 9.19207563E-06-1.61086880E-06 3.98906074E-06-3.50695952E-01-1.54212666E-05
19  3-6.51744520E-07-1.21468399E-06 1.72793726E+00-3.89280497E-07-4.00289459E-07
19  4-4.18724261E-07 1.17942973E-07 3.62062858E-03-1.57488378E-02 3.39739479E-07
19  5 1.34855535E-08 1.43514815E-06 2.99487343E-06-1.46387966E-01-5.37808684E-06
19  6 3.18729800E-06 5.75129545E-06-8.34506594E-01 6.48989405E-06 7.92962956E-07
19  7-7.53096372E-06-1.07886259E+00 2.98570875E-08 2.95650825E-07-2.22721773E-07
19  8-5.44646969E-08 1.53524207E-02 6.11270609E-04-1.69229733E-07 4.01636198E-06
19  9 1.56969886E-07 5.84503874E-06 7.09696826E-02 7.98619114E-01-7.09709265E-02
19 10-7.98620215E-01
20  1 5.30368350E-02-4.38660026E-02-8.60675754E-02 1.54223417E-01 8.61452374E-08
20  2-7.89230410E-01-1.98249478E-01 3.04037143E-01 7.95456706E-08-2.38487853E-01
20  3-2.06966497E+00 4.75053082E-01 5.67123726E-08 5.45768505E-02 2.21210098E-02
20  4 2.50761641E-02-4.99547032E-03 8.96396697E-09-1.29839971E-08 1.43192022E-02
20  5-3.81395665E-02-7.80322552E-02 1.05542670E-01-2.65545694E-07-1.12505302E-01
20  6 2.42481528E-02 3.41122206E-01-4.29993892E-07-6.00664928E-01 3.70078209E-01
20  7 3.32033633E-01-2.71173912E-07-2.69051703E-03 7.50021687E-03-3.14433696E-03
20  8 2.14400978E-02 3.30629859E-08 1.15049761E-08 2.06469904E-01 2.49823067E+00
20  9-6.59498319E-02-5.39925517E-01 6.96490669E-03 1.14446711E-01 6.96470753E-03
20 10 1.14445683E-01
21  1 1.48671147E-02-2.94074261E-02-6.21497085E-03-2.31698341E-01-1.08603446E-07
21  2-2.03964625E-01-2.49853203E-02-5.14668234E-01 3.83905514E-07-1.57989345E+00
21  3-1.04442039E-01 4.82956580E-01 1.55532286E-06-6.92881067E-05-5.91293433E-03
21  4 1.91726862E-03-8.48100814E-03 5.05141702E-08 4.77302132E-08-1.48752315E-01
21  5 2.12052702E-01-4.87313482E-02 2.54017971E-02 6.58965841E-08 2.74896277E+00
21  6-2.53996804E-01 3.51011003E-02-4.85990525E-06 2.17965958E+00-1.06277861E-01
21  7-1.56832694E-01-3.35884573E-06-4.24846951E-03-1.01945924E-02 2.48428291E-03
21  8-9.39147814E-04-4.86849756E-08-9.03070155E-08 9.43581573E-03 2.58044775E-01
21  9-9.34702398E-02-1.96128632E+00-6.57742286E-02-1.47919644E+00-6.57733551E-02
21 10-1.47921131E+00
22  1 3.42739678E-02-2.48033213E-03 9.81550617E-02 9.36767459E-02-1.82545827E-07
22  2-6.07988908E-01 4.25683706E-01 2.81699426E-01 6.02514610E-08 6.85136755E+00
22  3 9.69808884E-01 1.55588812E+00 1.14419779E-06 3.62943419E-02 2.13327323E-02
22  4 5.74926962E-02 2.26161044E-02 2.00706511E-08 4.06938436E-08 3.26639559E-02
22  5-1.19831545E-02 4.27400969E-02 2.03908403E-01 4.47646811E-07-1.11587934E+00
22  6-1.23617227E-02 1.25090987E+00-2.37762512E-06-2.01952334E+00 6.12106801E-03
22  7 1.16487544E+00-1.74989532E-06 5.73778915E-03 1.75389206E-03 1.30178299E-02
22  8-1.10570336E-02-6.22187043E-08-8.15828747E-08-8.76766714E-02-2.34392063E+00
22  9 2.01700402E-03-4.70207531E-01-5.87008702E-02-8.88715839E-01-5.87000688E-02
22 10-8.88722978E-01
23  1 4.88469450E-03-2.27908261E-01 2.22744799E-02-2.41722692E-01-9.45684012E-08
23  2 8.79058633E-01 1.58600102E-01 3.82276317E-01 4.32320396E-07 1.13225921E+00
23  3-3.42488370E-02 8.61785438E-01 2.61944299E-07-1.00872361E-01 6.03535096E-02
23  4-8.39730202E-02-1.37523374E-03 2.51096487E-08 6.34073880E-08-1.24001931E-02
23  5 1.43643282E-01 4.93018635E-01-8.37164607E-01 1.65753792E-06-6.54255141E-01
23  6-9.80105570E-01 2.05049216E+00-3.15302065E-06-4.20600472E-01 2.43732811E-01
23  7-3.21699485E-01 1.88286950E-07-3.94701304E-02-4.46679627E-02 2.49986970E-02
23  8-3.97688903E-03 1.24301931E-08-6.24783609E-08-6.65061824E-02 9.77810376E-02
23  9-2.42630254E-01-5.13127904E-01-7.47359803E-02-1.96936331E-01-7.47357326E-02
23 10-1.96939442E-01
24  1-2.68854417E-03-1.03731311E-01 8.65104337E-03-1.55771938E-01-2.95512266E-07
24  2 5.26956751E-01-1.97141739E-01 2.82725046E-01 1.80931555E-07 7.58455867E-01
24  3-5.63464167E-02 4.10505226E-01 2.45839630E-07-5.21419310E-02 3.92745089E-02
24  4-5.06025859E-02 7.96115929E-04 1.48240975E-08 1.04533324E-07-6.65317056E-03
24  5 1.64463577E-02-8.45886767E-01-4.52075482E-01 4.64667262E-07-3.07108450E-01
24  6 1.67584954E+00 1.24890032E+00-9.73205733E-07-2.93925209E-01-3.95317611E-01
24  7-1.62168230E-01-1.16488526E-06 5.83099277E-02-3.81537267E-02-7.60367369E-02
24  8-2.13477991E-02-2.08671661E-07-1.88371967E-07-6.32075716E-02-4.44208106E-02
24  9 1.74456165E-01 1.76690675E-01-2.11312243E-01-3.31392585E-01-2.11310045E-01
24 10-3.31398209E-01
25  1 3.28656749E-08 9.37663738E-09 3.59963022E-07-3.10842093E-08-4.78587816E-02
25  2 2.16626738E-08-1.01414945E-08 5.73535510E-08-2.33725787E-01 3.24138263E-06
25  3 5.31435381E-07 1.39781530E-06-1.76976588E-01 3.66566596E-09 1.42307329E-07
25  4 1.18357087E-08-1.40141168E-07-1.77235379E-02-5.64609499E-04 1.23408748E-07
25  5-1.43361438E-06-4.64892322E-08-1.84538111E-06-9.67599637E-01 2.99455352E-06
25  6-4.49425929E-07 3.27356284E-06 2.03202675E+00 3.13102362E-07 1.06880344E-06
25  7 2.06406626E-07-3.84196965E-01-3.41350686E-07-2.04876693E-07 3.02870680E-07
25  8 2.19935296E-07-8.98990290E-02-2.97345391E-02 2.26283290E-07-1.22436349E-06
25  9-6.71959657E-07 8.61913210E-11-2.52828697E-01-4.19557571E-01 2.52832445E-01
25 10 4.19549178E-01
26  1-6.45550728E-07-2.96804790E-06-1.68936070E-05 6.77351983E-08 2.66257108E-01
26  2 1.15003413E-05 2.12572861E-05 2.52950706E-06-3.24218876E-01-3.51089417E-05
26  3-1.61616915E-05-4.95915334E-07-5.62034770E-02-1.65428740E-06-1.29866659E-06
26  4-7.18524312E-07 6.24507570E-06-1.55743620E-02-1.02776516E-01-1.46002399E-07
26  5 6.35881145E-06 3.22531831E-05 6.03884205E-06-5.77227771E-01-1.60358036E-05
26  6-5.73279230E-05-6.41979375E-06 1.04817684E+00 4.18762319E-06-2.05913637E-05
26  7-8.18842069E-06 4.31693021E-01 1.00701493E-05 3.31637105E-07-9.53782824E-06
26  8-9.60428782E-06 1.51324649E-01 1.80565375E-01-7.90052671E-06 2.96713568E-05
26  9 4.90591987E-05-1.00892549E-04 7.60221561E-01-1.61403936E+00-7.60281806E-01
26 10 1.61416856E+00
27  1 9.47533717E-03 4.11958549E-02 2.93860797E-01-1.82611331E-02 1.66626009E-05
27  2-1.37818851E-01-3.63488722E-01 9.71237251E-03-1.98159429E-05 7.05055034E-01
27  3 2.52956107E-01 7.42305801E-02-2.31347497E-06 1.78648611E-02 2.59044779E-02
27  4 9.05599888E-03-9.87764845E-02-8.34633355E-07-6.41182163E-06 2.87807905E-03
27  5 9.96492484E-03-5.43751224E-01-9.21112157E-02-3.34742453E-05-3.74016214E-02
27  6 9.86554665E-01 1.78911687E-01 5.91618455E-05-1.25507387E-01 3.39775590E-01
27  7 1.46935829E-01 2.58115527E-05-1.58765835E-01 2.41861678E-03 1.57001553E-01
27  8 1.54308137E-01 9.70167691E-06 1.12663400E-05 9.74468639E-02-4.42908150E-01
27  9-8.21866592E-01 1.72810168E+00 4.73457465E-01-1.03523794E+00 4.73364628E-01
27 10-1.03504695E+00
28  1-4.65260520E-03 5.01916923E-01 6.12471869E-01-2.63520189E-02-5.68701579E-07
28  2-1.26745384E+00-6.86454649E-01-5.48099983E-02 7.71783478E-07-1.24942092E+00
28  3-8.67466049E-01 2.00698658E-01-1.35110182E-07-3.75634994E-02 1.80001888E-01
28  4 1.95067621E-01 1.02028898E-01 2.78074144E-08 1.81531341E-07 2.21773136E-02
28  5 5.56583385E-02 5.98430621E-02 4.05939006E-02 7.70397836E-07-2.60243438E-02
28  6-2.25413046E-01-2.22502566E-01-1.46697483E-06-1.01323548E-01-3.27316793E-02
28  7 1.36570749E-01-4.82572156E-07 1.59972299E-02 2.82178063E-02-3.25682420E-03
28  8-6.37494464E-02-2.29927177E-07-3.24977655E-07-1.00255720E+00 2.95467895E+00
28  9 1.47666094E-01-4.36066742E-01 5.32890744E-02 2.65657266E-01 5.32913167E-02
28 10 2.65652906E-01
29  1 2.36600557E-03 1.56213773E-01-3.02920571E-02 3.82713835E-02 2.09868382E-06
29  2-4.21398824E-01-5.94526990E-03-7.74229049E-02-2.49110745E-06 1.97624404E-01
29  3 9.94055881E-02 1.70026139E-01 1.91106187E-06 7.69850527E-02-3.74479495E-03
29  4 5.17108357E-02 3.79834099E-03 1.04029332E-07-5.94244087E-07 3.83029336E-02
29  5-1.12549184E+00 6.54407022E-02-4.18978069E-01 2.25890732E-08 3.02371984E+00
29  6-9.01114292E-02 7.08173176E-01-1.38364698E-06 9.64619722E-01-4.85648977E-02
29  7 1.04061448E-01-3.25287393E-08 4.71592585E-02-1.35510724E-01 1.59132849E-02
29  8 1.51404995E-02 1.03517251E-06 1.03554746E-06 1.21905901E-01-2.79110203E-01
29  9 7.19691022E-01-1.78622699E+00 6.30878849E-01-1.64934416E+00 6.30875108E-01
29 10-1.64934204E+00
30  1-1.95486868E-03 2.31374945E-01 1.73207053E-01-7.38904896E-01 2.36541103E-07
30  2-5.47429125E-01-4.09275934E-01 1.33761394E+00-4.36518427E-07-6.31455832E-01
30  3 6.95517260E-02-1.06614248E+00 3.89705366E-08 1.90444951E-01-7.94209816E-02
30  4 9.65041350E-02 1.41046285E-02-5.04919931E-08-1.79467498E-08-7.15281369E-02
30  5-8.72356987E-01 6.83064051E-02 2.55844101E-01-3.88758483E-07 1.69582548E+00
30  6-9.25154514E-02-1.09089460E-01 1.02244668E-06 1.47616682E-02-7.33211746E-02
30  7 3.25915486E-02 1.00162116E-07 2.59558349E-02-2.21655766E-01-2.80346831E-02
30  8 1.90787783E-02-8.21438418E-08 5.76464190E-08 1.37126523E-01 2.73480770E-01
30  9-1.93230349E-01-1.07255902E-01-2.50935427E-01 1.20404014E-01-2.50936046E-01
30 10 1.20405801E-01
31  1 2.47449632E-08 2.02939772E-07 1.49425544E-06-5.73827160E-07-9.31988589E-01
31  2 1.04347273E-06-3.30689279E-06 3.19999500E-06 1.53026457E+00 1.06917226E-05
31  3 3.72472792E-06 2.41901606E-06-9.75922492E-01 5.60012965E-07 3.48592723E-08
31  4-3.38311767E-07-3.40404199E-07 5.05660515E-02-4.10347605E-02 3.00959643E-07
31  5 3.37099810E-06 4.42832799E-07-7.44183885E-07-1.79033489E-01-1.09994670E-05
31  6 9.28066365E-07 4.11029026E-06-3.05554455E-02-1.55925243E-06-1.17755530E-06
31  7 1.26806996E-06 4.69041220E-01 8.58131591E-07-2.04023051E-07-2.15750781E-07
31  8 5.87306153E-07 1.54404928E-01-2.47935490E-02 2.22835135E-06-4.38674031E-06
31  9 2.32236125E-06-8.78255152E-07 2.25136568E-01-2.94551861E-01-2.25133820E-01
31 10 2.94549737E-01
32  1-1.15145486E-02 1.14689619E-01-6.20843320E-01-6.71923047E-02-2.66794855E-06
32  2-3.95533440E-01 1.28583261E+00-2.09334332E-01 4.50474837E-06-1.34418655E+00
32  3-1.11091208E+00-3.52561829E-01-2.90093099E-06-1.17399267E-01 1.97704044E-02
32  4 1.67387260E-01 1.21199346E-01 1.81382783E-07-2.85582137E-07-3.83710613E-02
32  5-7.75751993E-01-2.27306935E-01 7.13895348E-02-6.90300074E-07 2.19254820E+00
32  6-7.47391573E-02-3.55093726E-01 6.76800710E-08 3.41739869E-01 4.56509228E-01
32  7-7.21170808E-02 1.49906250E-06-2.30263500E-01-2.19422609E-02 1.67476951E-01
32  8-1.82147545E-01 7.08589789E-07 1.55312434E-07-6.16195499E-01 8.67572994E-01
32  9-4.14157544E-01 8.39692018E-02 3.92391542E-02-4.00862521E-01 3.92370256E-02
32 10-4.00859886E-01
33  1 2.61666648E-03-4.30512910E-01 2.65509176E-01 4.39673021E-01-9.84292190E-07
33  2 2.56400204E-01-4.71084168E-01-1.57316701E+00 1.76381376E-06-3.96596985E+00
33  3 5.87862381E-02-7.30966196E-01-1.49569375E-06-8.09596267E-02-1.46922603E-01
33  4-1.26275407E-01-2.49463754E-02 7.32988031E-08-4.09888514E-07-1.12414508E-01
33  5-1.79354576E+00 5.69395636E-02-1.08224742E-02-1.03135501E-06 5.93477766E+00
33  6-1.00995294E-01-1.03513948E+00 1.51058628E-06 1.43034783E+00-9.20074982E-02
33  7-6.12159114E-01 1.07199084E-06-5.65540625E-02 4.55004750E-02-1.25581291E-01
33  8 1.85537987E-02 5.16098113E-07 4.84549109E-07-9.05146657E-03 3.89133049E-01
33  9-3.33918265E-01-7.99854962E-01-3.97422542E-01-5.49712198E-01-3.97425425E-01
33 10-5.49707528E-01
34  1 2.55452778E-07 4.88940651E-06-7.01109601E-07 2.75756227E-07-1.00582234E-01
34  2-1.29435992E-05 1.81911155E-06-2.04067309E-06 3.30364053E-01 8.33292706E-06
34  3-8.86869999E-07 1.33445430E-06-1.73186377E-01 7.61940266E-07 1.99140711E-06
34  4 9.83699601E-07-1.73775648E-06-1.14424704E-01-5.26576754E-01-7.02683231E-08
34  5-4.83210326E-07 3.42784894E-07-3.01165770E-07 1.28177829E-01 3.31913697E-06
34  6-4.16482859E-07-1.38205410E-06-7.46661831E-02-3.45203204E-06 9.66958086E-08
34  7 1.98273888E-06-2.18025975E-02 4.51887484E-07 3.90043438E-07-8.91011236E-07
34  8 1.60878253E-06-4.66325484E-01 5.74521088E-01-2.12355957E-07-1.52832193E-07
34  9-1.32311587E-07-1.17849905E-06-1.30953354E-01 1.88361667E-01 1.30951804E-01
34 10-1.88361865E-01
35  1-6.15208355E-02-1.17416839E+00 1.81381878E-01-8.39231890E-02-3.90717621E-07
35  2 3.16018588E+00-4.91647445E-01 5.93732898E-01 1.27441125E-06-1.82324672E+00
35  3 2.46558885E-01-3.01319964E-01-5.65767868E-07-1.64022230E-01-4.78991334E-01
35  4-2.48679721E-01 4.67491689E-01-4.78042888E-07-1.95761151E-06 2.50662228E-02
35  5 3.32529232E-01-7.77192982E-02 9.36367878E-02 7.31935222E-07-1.45286920E+00
35  6 6.86303469E-02 3.32031830E-01-7.53874181E-07 6.74068583E-01-4.00179895E-02
35  7-4.56725277E-01-2.15346747E-07-1.30825187E-01-9.62143262E-02 2.36401078E-01
35  8-4.38997226E-01-1.93875379E-06 2.10396322E-06 8.24267122E-02 4.01367303E-02
35  9 4.03284345E-02 4.20521947E-01 1.85099307E-01 2.27973023E-01 1.85100959E-01
35 10 2.27970504E-01
36  1-8.25990896E-02-1.28981705E+00-3.22412973E-02-1.49276577E-01-5.10654220E-08
36  2 3.53619902E+00 3.64098055E-01 7.32421172E-01 1.26099439E-07-2.27002449E+00
36  3-3.76680162E-01-3.51055199E-01-4.63667471E-09-6.22332278E-01-4.96850933E-01
36  4 1.38904591E-01-3.00586953E-01-1.67398197E-07-1.22948242E-08 2.35898478E-02
36  5 1.63598384E-01 2.68057560E-02 1.84994181E-01 1.36466540E-07-1.24470242E+00
36  6 7.12503390E-02 3.77342394E-01-3.40255949E-07 7.68303988E-01 7.08589331E-02
36  7-4.96304941E-01-5.43280417E-08 1.52355883E-01-8.68464272E-02-6.60853071E-02
36  8 3.73436139E-01-3.03914952E-07-2.23486586E-08-4.53906800E-01 5.31197514E-01
36  9 2.05925969E-01 2.50701224E-01 7.61679672E-02 2.56663831E-01 7.61682950E-02
36 10 2.56663150E-01
37  1-1.37922691E-08-3.36927248E-07 1.36544609E-08-1.35161634E-07 4.74656860E-02
37  2 9.13911795E-07 7.06556454E-09 4.56249640E-07-1.42468764E-01-3.79286182E-07
37  3-6.09746934E-08-2.09112625E-07-2.96456415E-03-1.38161356E-07-8.32649069E-08
37  4 2.48979900E-08-1.64083884E-08 9.48420526E-01-1.78306428E-01 4.86731684E-09
37  5 7.47636881E-07 1.08881840E-07 2.33073238E-07 1.92310115E-02-2.29446583E-06
37  6-2.40061634E-07-2.64454559E-07 3.53465665E-01-4.31326536E-07-7.66567611E-08
37  7-1.12432973E-07-2.27064087E-02 1.50257508E-08 4.01787474E-08-1.44772265E-07
37  8-6.32826857E-10 1.67996494E-01 1.47610867E-01-7.74849927E-08 2.86383367E-07
37  9-1.38776024E-08 5.59724224E-07-1.86800951E-01-1.04037448E-01 1.86800359E-01
37 10 1.04039796E-01
38  1 6.65003013E-03-5.89353850E-01-7.77373548E-02-3.72536752E-01 3.07797042E-08
38  2 8.35753994E-01 3.85590436E-01 3.47722677E-01-8.76029707E-08-4.77636570E-01
38  3 5.72049855E-03-2.24694394E-01 3.95325430E-08 2.45389249E-02 2.64162474E-01
38  4-5.09177134E-01 1.53158869E-01-2.04788862E-07-2.65536383E-07 1.19325931E-02
38  5-3.78414034E-01-3.80969087E-02 3.00114312E-01 1.58457059E-07 1.60964583E-01