 $CONTRL  SCFTYP=ROHF RUNTYP=energy DFTTYP=BHHLYP ICHARG=0
 MAXIT=200 MULT=3 local=boys $END
 $guess guess=moread norb=147 $end
 $local extloc=svd $end
 $BASIS  GBASIS=N31 NGAUSS=6 NDFUNC=1   $END
 $SCF  DIRSCF=.t. diis=.t.  vvos=.t. $end
 $dft swoff=0 switch=0 $END
 $SYSTEM  TIMLIM=999999100  MWORDS=500   $END
 $DATA
Thymine XAS 1-1
C1
 C           6.0  -6.2593950964   3.3064326088   0.0001222763
 C           6.0  -5.0659475130   2.6817071011   0.0001223992
 C           6.0  -5.0948201986   1.2718856120  -0.0000143958
 C           6.0  -7.5447591779   1.2386060300  -0.0001051556
 C           6.0  -3.7674730144   3.4368481620   0.0004391307
 N           7.0  -6.3333416929   0.6207155149   0.0001641679
 N           7.0  -7.4662348728   2.6183425833  -0.0000888310
 O           8.0  -8.6043875048   0.6610845589  -0.0003485633
 O           8.0  -6.4365180940   4.6436751703   0.0001940782
 H           1.0  -6.3806268893  -0.3785271684   0.0000958664
 H           1.0  -8.3394886709   3.1068197852  -0.0005479958
 H           1.0  -2.9319696982   2.7438817667  -0.0014729878
 H           1.0  -3.6669944337   4.0693518835   0.8795305819
 H           1.0  -3.6684676204   4.0726887227  -0.8764232601
 H           1.0  -4.2201855226   0.6544596692   0.0000596889
 $END
--- OPEN SHELL ORBITALS --- GENERATED AT 16:28:36 21-MAY-2022    
Thymine XAS 1-1                                                                 
E(RO-BHHLYP)=     -453.7435684821, E(NUC)=  438.9296231817,   36 ITERS
 $VEC   
 1  1-1.26808909E-05 3.50367690E-04-4.83613288E-05 2.57178588E-04 1.96664307E-08
 1  2-1.84837084E-05 6.18722746E-04-2.98816201E-03-2.64756858E-07 6.63023884E-07
 1  3-2.89516455E-04-7.67283457E-05 3.74427743E-05 3.76698636E-09-5.74790044E-10
 1  4 8.01825299E-07 9.54918766E-05-3.91326096E-05-4.75820237E-05-1.56453349E-08
 1  5-1.28036502E-03 1.69344773E-03 1.05766865E-03 4.03498760E-07-7.23012025E-06
 1  6-7.97552050E-05 1.35956216E-07 5.10131580E-05 3.53627792E-08 8.78039229E-09
 1  7 8.62674232E-06 1.62177124E-05-5.75059502E-06 4.86252019E-05 6.75642667E-09
 1  8 8.42722257E-04-3.32323904E-04 2.73187472E-04-1.35138491E-08 5.45191312E-06
 1  9 4.29840439E-05 2.05970705E-05 1.63201672E-05-3.60611322E-09-9.51474441E-09
 1 10 2.61998828E-05 7.82742727E-05 1.02102246E-05 4.35043030E-05 4.79038407E-09
 1 11 2.21532627E-04-2.79514728E-04 1.45817164E-05-6.85592222E-08 4.63687726E-05
 1 12 7.71413457E-05 4.22422031E-05 3.41733922E-06 3.07610704E-09 2.86233449E-09
 1 13 1.29489958E-05 7.26288086E-05 6.42776627E-06 5.43524701E-05 1.13297722E-07
 1 14-1.10793726E-03 4.98851029E-04 1.52022332E-04-4.62249946E-07 6.65514190E-06
 1 15 1.48398669E-05 1.04826258E-05-3.79223496E-05-4.59440829E-08 5.47019288E-08
 1 16 7.96065752E-06 3.88823508E-05-2.34882632E-06 1.54763044E-05 7.42927264E-10
 1 17-2.14424484E-04-1.11048988E-04-1.27312858E-04 2.82570464E-08-1.22047402E-05
 1 18 2.30304453E-05 2.70491032E-05-6.22124563E-06-3.49100683E-10 4.34047718E-09
 1 19 6.28645319E-07 8.59773989E-05 1.67018737E-06-3.02689526E-05 1.02247102E-08
 1 20-4.94494558E-04-4.80781799E-04 4.66442104E-04-8.55178833E-08-3.10380210E-05
 1 21-7.90454877E-05 1.05748738E-05-5.17521260E-05 8.32762623E-09-1.40827879E-08
 1 22 1.43980518E-05 6.79148961E-05-8.51900150E-07 6.38709922E-06 5.22902327E-10
 1 23-4.07025288E-04-1.05007177E-04-8.01280188E-05-3.07067083E-08 2.26232805E-05
 1 24 3.72217689E-05 4.79718632E-05-1.71911716E-05-6.94706629E-09-5.05974029E-09
 1 25 9.93798567E-01 2.32103600E-02 1.43834791E-04-1.05746324E-03-5.19546426E-08
 1 26 8.98221988E-03 6.13933861E-05-7.22446711E-04-1.93431713E-08-6.24624454E-03
 1 27-6.21057779E-03-6.39869164E-03 5.54610052E-06-3.15755991E-08-6.68694178E-10
 1 28-1.51342651E-05-2.47754942E-05-3.35766535E-05-2.68903514E-04 1.12716059E-05
 1 29-7.03807594E-05 5.84723661E-05 7.27805198E-06 5.87664483E-05 6.28490673E-06
 1 30 1.04358884E-05 8.94491884E-05
 2  1 3.02139619E-05 1.08384777E-04-5.87361663E-05-4.64082255E-05-6.00667672E-09
 2  2-2.04104663E-04-2.77768235E-04 6.60639076E-04 2.47375873E-08 9.68960173E-05
 2  3 3.72103169E-05 5.69323647E-05 8.71370716E-06 5.70242577E-09 1.69238526E-09
 2  4 1.18306492E-06-2.85462157E-06-2.04777420E-05-1.32484639E-05 1.47564228E-09
 2  5 6.84280663E-04-2.21351316E-04-1.26568049E-04-4.06258376E-08 1.15898159E-05
 2  6-1.48960510E-05 1.33505784E-05 3.54728330E-05 2.30180199E-09 1.75535566E-09
 2  7 2.25984869E-05 8.32795461E-05-8.80420062E-05-2.95162438E-05 1.42458515E-08
 2  8-1.83007748E-04 1.79186414E-04-2.92940566E-04 7.40206550E-08 4.59749751E-05
 2  9 4.57567551E-05 4.89302154E-05 4.48472306E-05-3.01359938E-08-1.20006640E-08
 2 10-2.04706538E-05 4.06926873E-04 7.66383940E-05 4.21039756E-05 2.72811086E-08
 2 11-2.23331543E-03 2.83373614E-03 1.47944324E-03 6.32976280E-07-8.08907592E-04
 2 12-2.55489454E-04-7.34227633E-05-4.81891847E-04-1.95178401E-07-1.11989490E-07
 2 13 2.18066639E-06 1.45278850E-05 2.41187864E-06 2.80225782E-06-3.02716941E-10
 2 14-1.23711552E-05 1.59118220E-05 4.32082231E-07-5.93746490E-10-6.80098985E-06
 2 15 2.23892422E-06 2.54437703E-06-7.38135595E-06-6.51352890E-09 2.23953148E-09
 2 16 3.74225004E-06 4.17499077E-05 3.60207537E-05 3.39411930E-05 1.40887117E-08
 2 17-5.31878324E-04-2.18773208E-04-4.78458656E-04-5.74938101E-08-8.75747528E-05
 2 18 7.48118364E-05-1.19371647E-05-8.00079344E-05 3.47312160E-09-1.52561015E-08
 2 19-1.20151283E-06 2.69990170E-05 4.24662680E-05 2.86328945E-05 1.79204526E-08
 2 20-3.32813110E-04-4.79650629E-04-3.94360676E-05-1.61812921E-07-3.24088128E-05
 2 21-2.18091840E-05-1.98078508E-05-1.14530774E-04 4.14697866E-10-2.92529016E-08
 2 22 9.93502035E-01 2.36785954E-02 1.27141781E-03 6.70755221E-04 2.91570684E-07
 2 23 1.12763045E-02 1.11786612E-03 6.31557720E-04 2.65223184E-07-6.10719192E-03
 2 24-6.40739443E-03-6.59260157E-03 2.78883832E-04 1.26709179E-07 6.76679080E-08
 2 25 2.16461429E-05 9.71723364E-05 4.07210613E-07-9.28457581E-06-1.23038361E-09
 2 26-5.98403874E-04-2.31527291E-06 1.72096684E-04 1.14691880E-08 6.83037102E-05
 2 27 4.14557404E-05 6.28680889E-05 2.65195262E-07 6.22750234E-10-1.54224666E-09
 2 28-5.45254985E-05-1.09247709E-04-4.53179069E-05-1.16227475E-04-1.82347662E-06
 2 29 9.38472090E-06 4.80615191E-06-2.21721857E-06 4.80929967E-06-2.23525763E-06
 2 30-1.58847894E-05-1.41406900E-04
 3  1 8.67787660E-07 5.66055949E-06-6.01167720E-06-2.06247356E-05-8.99665818E-09
 3  2 9.62266422E-04 1.28807977E-04-5.11169395E-04-4.67321256E-08 1.53190629E-05
 3  3-2.53897439E-06 3.29135960E-06-9.57379125E-06-1.83477894E-09 2.94982841E-09
 3  4 1.50540289E-05 1.26925385E-04-1.70605761E-05 1.30821569E-05-1.29846870E-08
 3  5-1.30137980E-03 9.33779397E-04 5.37744554E-04 1.33071366E-07-1.79188187E-05
 3  6-4.66114010E-05 2.02212460E-05-2.82523711E-05-6.72522374E-09-2.51756771E-09
 3  7 2.23386801E-05 1.38523533E-04-2.39842607E-04-1.25567027E-04 3.75051272E-08
 3  8 1.06245678E-03-8.09718379E-04 5.85628805E-04-9.22535455E-09 5.62543056E-05
 3  9 1.07867555E-05-5.70703783E-05 2.35327623E-05-2.83923124E-08 1.65109173E-08
 3 10 3.93168730E-05 1.91779444E-04 2.38850277E-04-1.19595227E-04 4.49488951E-08
 3 11 5.45782871E-04 1.20184767E-03-2.53931203E-04 2.04129719E-07 1.35345384E-05
 3 12 1.86772801E-05-3.52133702E-05 2.47826492E-05 1.44751440E-08 1.36795218E-08
 3 13-5.05649240E-07 1.54396700E-07 1.48574391E-05 1.58905860E-05-2.39971243E-09
 3 14-3.80635433E-04 1.20556701E-04 5.13139891E-05 1.01259550E-07 3.49195996E-06
 3 15-5.08098745E-06-9.89108295E-06 3.33354007E-06-6.35203599E-09 1.38220703E-08
 3 16 9.93619503E-01 3.11427288E-02-4.04373417E-05 8.25250078E-05-4.05694866E-07
 3 17-5.82525586E-05 2.68491172E-04-8.30298815E-04 3.71462415E-07-6.42841566E-03
 3 18-6.35041468E-03-6.33023086E-03-2.30810135E-05 3.80203187E-09 4.36799321E-08
 3 19-1.33458091E-04 1.65587331E-05 9.82936010E-06 3.96691674E-05 9.87161990E-10
 3 20-2.51036003E-04-5.47196289E-04-4.71213406E-05-1.00335463E-07 6.00423576E-06
 3 21-2.33808030E-05-1.77233676E-05 3.78962904E-05 1.65515019E-08 2.95567230E-09
 3 22-2.31517728E-05-9.81963697E-05-1.47566857E-05-2.73580690E-05 8.12911724E-09
 3 23 7.01653886E-04-1.59103964E-05 2.59821614E-04 8.11448362E-09-1.55980824E-04
 3 24-1.79035403E-05-7.70700436E-05 3.33823436E-05-1.95915317E-08 1.36604508E-08
 3 25-6.12946384E-06-2.58456463E-05 3.88712513E-06 3.09028543E-06-4.85228184E-10
 3 26 1.81967383E-04-2.52595494E-05-3.58103178E-05 1.40712807E-09-1.65859337E-05
 3 27-1.70810342E-05-1.92108728E-05 7.46602282E-06 1.17628554E-09 4.35554794E-10
 3 28 2.33810772E-04-3.34642838E-04-6.32476690E-05-4.63469681E-05-1.12845519E-06
 3 29 7.89540721E-06 8.35732339E-06 8.14726988E-06 8.37377758E-06 8.26196931E-06
 3 30 2.73138652E-05 3.27425200E-04
 4  1 2.12769913E-05 1.58314608E-04-2.35384056E-04-1.50724011E-04-3.79131734E-08
 4  2 9.63906989E-04-6.53918076E-04-1.32161106E-03-2.51667161E-07 4.62201927E-05
 4  3 2.63814030E-05-5.10037918E-05 2.22031897E-05 1.04878971E-08 1.77843977E-08
 4  4 7.97890753E-06 7.97730580E-05 7.63442154E-06-3.95357671E-05 7.49154949E-10
 4  5-7.26596257E-04 7.81161006E-04 9.93294934E-04 1.42249748E-07-7.02958833E-05
 4  6 8.90963724E-06 1.71297805E-06-1.74779601E-05-1.74741992E-08 8.65381451E-09
 4  7 3.47415380E-06 8.35749516E-06-2.44034588E-05 1.49074322E-05 7.14389977E-09
 4  8 9.93918003E-04-2.33020206E-04 3.35692480E-04 9.35889187E-08-1.06969280E-06
 4  9 2.60989710E-05 8.28902489E-06 2.60935803E-06-1.70578588E-08 3.48734289E-09
 4 10 2.88285296E-05 1.95920833E-04 1.93185665E-05 3.05132828E-04 8.55948719E-09
 4 11 5.22392783E-04 4.60283007E-04 1.02523202E-03 2.55602048E-08 3.76977786E-05
 4 12 2.27615211E-05-3.74980514E-05 1.43416415E-05 1.89476814E-08 5.52685453E-09
 4 13-4.52186920E-06-1.16124453E-05 4.09630250E-05-1.52854258E-06-1.83768073E-08
 4 14-4.71768026E-04 1.23846120E-04 1.18333734E-04 2.39468617E-07-1.42908422E-05
 4 15-8.91601354E-08-1.67212546E-05 8.08466699E-06 1.06923004E-08-6.41795025E-09
 4 16 1.39185282E-04 2.36899961E-05 4.31764016E-05-1.96786775E-05 1.27762404E-08
 4 17-3.00999369E-04-2.67644319E-04-4.02173945E-04-9.60292878E-09 7.68504847E-06
 4 18-2.48939983E-05-1.89776953E-05 3.71312165E-05 7.24108665E-09 1.71886766E-08
 4 19 9.93586771E-01 3.13214821E-02 1.14700999E-04-1.01538750E-04-3.33274580E-07
 4 20-4.25560908E-04-9.04517656E-04 5.12010435E-04-1.54403951E-08-6.39517573E-03
 4 21-6.41520294E-03-6.31031514E-03-5.60897861E-05-8.84846714E-10-1.24042242E-08
 4 22-1.99144791E-05-9.50233022E-05-3.18776396E-05-1.08307715E-05-5.78077420E-09
 4 23 6.53492519E-04 1.91304816E-04-1.56187574E-04 5.78454122E-08-3.54571351E-05
 4 24-1.36102187E-04-7.23442596E-05-5.74375101E-05 1.48429063E-08-1.62762850E-08
 4 25-2.60141673E-05-1.12041201E-04-5.32577286E-06 3.39882620E-05-5.62001293E-09
 4 26 7.56868823E-04 2.00954881E-04-1.39556305E-04 3.56978126E-08-7.73213271E-05
 4 27-1.15317809E-04-8.74906576E-05-5.81884312E-05 4.76073292E-09-1.10883196E-08
 4 28-5.41480800E-05-2.28462525E-05 2.49446530E-04-3.89659455E-04 1.70552706E-05
 4 29 3.62130861E-05-6.66072595E-07-1.29512117E-06-6.73641540E-07-1.09981985E-06
 4 30-5.94663310E-06 5.46000646E-05
 5  1-2.83178713E-04-6.73694666E-04 7.57031116E-05 1.08908112E-04-2.79599990E-08
 5  2 4.86842939E-03 1.99057814E-03-6.37119308E-03-3.59455242E-07-3.97193084E-06
 5  3-9.73445357E-05-2.46362552E-04 3.89678614E-05 1.49650542E-08 2.81131669E-08
 5  4 4.40165449E-05 4.23277366E-04 2.52015997E-05-3.12585396E-05-3.43951095E-08
 5  5-8.40837566E-03 5.04828714E-03 3.14494750E-03 7.85374684E-07-9.69683295E-05
 5  6-6.68763741E-05 8.22817113E-05-6.22815425E-05-1.42193588E-09-4.47264702E-08
 5  7-1.30571922E-04-5.56865917E-04 1.92489201E-04 8.31534337E-06 7.71272956E-08
 5  8 4.49842147E-03-3.07591899E-03 3.56028453E-03-2.21174381E-07 7.65378066E-05
 5  9 7.13944269E-05-2.06849751E-04 9.46250542E-06-1.29184207E-08 2.50284039E-08
 5 10 9.94088971E-01 3.97084033E-02 4.41682698E-04 1.03100283E-04 1.08290344E-07
 5 11-2.70999313E-03-4.41456765E-03-2.43617313E-03-8.74830370E-07-5.05398826E-03
 5 12-5.57950959E-03-6.71076568E-03 3.24911852E-04 4.26735413E-07 7.61663448E-08
 5 13-7.27610131E-06-3.50007544E-06 7.63362144E-05 2.78415541E-05 2.20179318E-08
 5 14-1.89263116E-03 5.88169912E-04 3.80137693E-04 2.85938297E-07 7.63460963E-08
 5 15-1.69609971E-05-1.80664506E-05 1.85803504E-05 9.22543382E-09-1.91542811E-08
 5 16-1.77782944E-04 2.37722519E-04 5.97682670E-05-5.65468449E-05 2.49935969E-08
 5 17-2.48473053E-04 9.00188158E-04-8.00671855E-04 4.79756327E-07-6.31660011E-04
 5 18-1.97122661E-04 1.31891312E-04 2.53360351E-04-1.95153466E-07 1.61176940E-07
 5 19-1.59245341E-04 2.36645389E-04-1.25426899E-05 1.30731192E-05-2.28247322E-08
 5 20-3.62254197E-04-5.77052401E-04 1.47003950E-03 2.89472083E-08-1.30465352E-04
 5 21-5.89356234E-04 1.19715120E-04-6.83977680E-05-4.07753304E-09-9.19735385E-09
 5 22-8.22912156E-05 1.08102464E-03 1.63145835E-04 8.54235853E-05 5.76537306E-08
 5 23-6.81788618E-03-2.56458065E-03-1.38780724E-03-6.92327105E-07 2.93031354E-04
 5 24 5.20801902E-04 7.36428314E-04-2.12986424E-04-1.43812606E-07-6.54318442E-08
 5 25-1.36796948E-04-6.11503388E-04-9.60225307E-06 2.50726434E-05-4.84205227E-09
 5 26 4.22712581E-03 4.85935776E-05-1.04993887E-03-3.28050207E-08-4.18985869E-04
 5 27-3.15602336E-04-3.45289866E-04-1.17106818E-05-1.01024724E-08-3.96262506E-09
 5 28-4.85555900E-05-7.25919751E-05-1.44308073E-04-1.42718734E-04 5.46882014E-05
 5 29-5.20099515E-05 3.98161349E-06 4.93501863E-05 3.95782933E-06 4.95995371E-05
 5 30 2.33531799E-04 1.66001993E-03
 6  1 9.94012931E-01 4.02985792E-02-7.93558116E-04 1.60000066E-04-1.21745487E-07
 6  2-1.24522043E-02-6.90030054E-03 6.66348403E-03 3.58664867E-07-5.70371058E-03
 6  3-5.41093908E-03-6.56531309E-03-1.87696539E-05 1.35899660E-07 7.17455518E-08
 6  4 1.19351680E-02-1.23628489E-04 3.58967962E-04-1.00691648E-04 7.57781455E-09
 6  5 9.11041018E-03-6.83781141E-03 1.63777472E-03-5.23401726E-07-2.78547791E-04
 6  6-4.19681914E-04-2.50014041E-04-4.92912080E-05-4.56618633E-08-4.95093911E-08
 6  7 1.77969365E-04-2.36577291E-04-1.45695452E-05-8.75875326E-05 2.53627847E-09
 6  8-2.02596656E-04 1.07203231E-03 9.10491653E-04 8.67783245E-08 3.71333917E-05
 6  9 1.11953502E-04-8.68085042E-05-4.85356497E-05 3.92764188E-09 6.96434520E-08
 6 10 4.19802098E-05-5.64931677E-04-1.73667153E-05-1.30771356E-04-1.47616405E-08
 6 11 1.06236439E-05 4.84413654E-03-2.86010513E-04 1.25748059E-06-9.05902100E-05
 6 12-1.41093513E-05-2.27683465E-04-1.62394269E-05 3.00033783E-08 4.29427224E-10
 6 13-6.78897760E-05-2.73592118E-04 3.54202318E-05-7.87244456E-05-1.28154655E-07
 6 14 2.04775266E-03-7.26803420E-04-7.49232927E-04 5.04512265E-07 9.90452507E-06
 6 15 5.03010851E-05-8.72065957E-05 6.82034967E-05 5.11165282E-08 6.87032209E-08
 6 16 4.22850176E-05 1.63333545E-04-2.15264419E-05-1.25340546E-05 1.88981751E-09
 6 17-2.40458370E-03 1.56240431E-03-8.62544324E-04 9.38869743E-08 8.91680087E-05
 6 18 6.32857361E-05 5.95939324E-05 7.57739505E-05-8.01663697E-09 3.17556140E-08
 6 19-1.70713435E-04 1.89323043E-04-4.01587044E-05 9.07276663E-05 2.32826083E-08
 6 20-1.62677882E-05-1.76662540E-03-2.78047519E-03-7.52209746E-07-5.08100580E-04
 6 21-3.75924255E-04 6.89807848E-05-4.26157603E-04-1.57944728E-07-1.16341070E-07
 6 22-1.32811909E-04-5.87251147E-04-4.27800393E-06-1.80846985E-05 3.90468677E-09
 6 23 4.11794464E-03 6.33912953E-04 7.66684895E-04 1.07066531E-07-3.60335776E-04
 6 24-3.56454320E-04-3.34484551E-04 6.76082337E-05-1.47513246E-08 1.39852781E-08
 6 25 6.33815700E-05 9.65873761E-04-4.29447901E-05-3.84588029E-05 6.67324701E-09
 6 26-5.07683008E-03 5.16109251E-04 2.51199215E-03 8.43437988E-08 6.62313333E-04
 6 27-4.00668679E-04 7.12971050E-04-6.17214362E-05 4.01041563E-09-6.09895620E-08
 6 28-2.58222853E-05-6.68254216E-05-5.16265359E-05 3.49989564E-05-4.15781006E-05
 6 29 3.90634421E-05-8.58571332E-05 5.83392045E-05-8.59320182E-05 5.97084050E-05
 6 30-5.52155354E-05 4.33403244E-05
 7  1-1.24723670E-02-1.00753597E-03-3.42245650E-04 1.44403185E-04-5.74406212E-09
 7  2 7.81714544E-03 2.49305695E-03-2.41064007E-03-1.55698234E-07-3.18086745E-04
 7  3-2.39480651E-04-6.53192846E-05 4.93755125E-05-1.63987838E-08-1.47163887E-08
 7  4 9.92821080E-01 4.11477433E-02-2.21657178E-04-2.49288859E-04 1.76036903E-07
 7  5-1.92404648E-02 2.82844469E-03 1.32649821E-03 4.30553173E-07-6.04329568E-03
 7  6-6.07343201E-03-6.55113200E-03-1.03990193E-04 1.27808349E-07 1.08660143E-07
 7  7 4.69738026E-02 1.60012652E-03-5.91444860E-05-3.46778698E-04 9.75481846E-09
 7  8 6.40838148E-03-1.58046494E-03 2.60180819E-03 2.77551003E-07-4.84690524E-04
 7  9-8.40776501E-04-4.70194028E-04-9.76464088E-06-5.15341431E-08-4.83171973E-08
 7 10 1.17402338E-05-4.48432139E-05 4.14499066E-05 2.70980474E-05-3.64200264E-09
 7 11 1.18654852E-03 1.47039571E-03 1.01344675E-03 2.92767195E-07 3.31176275E-05
 7 12 1.81378340E-05-2.16494844E-05 1.25401857E-05-7.55498078E-10 2.20242668E-08
 7 13 6.81145877E-03 2.80594863E-04 1.95216031E-04 2.15567591E-04 5.11395807E-07
 7 14 1.86558853E-03-8.30752903E-04-1.05208333E-03-2.62124721E-06-4.53394015E-04
 7 15-2.70796370E-04-7.52748018E-05-1.98327548E-04-1.59268943E-07-5.01635496E-08
 7 16 6.09025318E-05 2.12457252E-04 9.60999087E-07 5.24684869E-05-2.47870291E-08
 7 17-2.77514726E-03-3.43198097E-04-1.37419894E-03 2.63511993E-07 1.22528594E-04
 7 18 1.90595285E-04 1.21531727E-04 1.83208716E-06-8.74112568E-09 7.41998087E-08
 7 19 6.32579844E-05 1.55028480E-04 4.90114555E-05-2.04421991E-05 2.47293262E-09
 7 20-2.33791851E-03-9.50456451E-04 7.40497149E-04-1.39037130E-07 2.33346961E-04
 7 21 1.26026719E-04 9.04675095E-05 7.01497553E-06 4.14225408E-08 1.32810128E-08
 7 22-4.37615767E-05-1.96440243E-04-1.84614695E-05-8.05933190E-06 2.06432006E-10
 7 23 1.32194320E-03 2.32045544E-04 1.01009106E-04 5.08037081E-08-1.23718063E-04
 7 24-1.20682506E-04-1.18107031E-04-3.91776973E-06-3.30066678E-09-7.15742086E-10
 7 25-1.79215579E-06-4.49833351E-05 2.52160842E-05-1.29033947E-05-1.27099833E-08
 7 26 1.05879578E-04-2.00805772E-04 2.21401240E-05 4.96708037E-08 4.38967892E-05
 7 27 6.93125848E-05-4.15716720E-05-1.82070143E-05 1.18618987E-08-1.99842990E-09
 7 28-1.16275411E-04-8.85508335E-05-1.08355176E-04-3.67497550E-05-8.01626217E-05
 7 29-2.93184077E-04-1.27906600E-04 4.48646791E-04-1.27561751E-04 4.45721883E-04
 7 30-4.34530466E-05 4.97929350E-04
 8  1 3.47123688E-04-1.99674585E-04 2.69020554E-05-6.42049282E-05-1.80426751E-08
 8  2 1.81446945E-03 1.14273550E-03-1.54501369E-03-1.01502918E-07 1.31353968E-04
 8  3 1.19792219E-04-5.34867550E-05-7.97730795E-05 1.68657036E-09 1.72220396E-08
 8  4-4.73135056E-02-2.16987206E-03-9.84155631E-06 4.50621629E-04 4.21795311E-08
 8  5 3.18896035E-03 1.79291956E-03-2.37064582E-03-2.15559926E-07-2.85270744E-05
 8  6-1.71198892E-04 2.16662669E-04 2.92730166E-05-3.87813653E-08-7.69646587E-08
 8  7 9.92942479E-01 4.03321931E-02-1.06713271E-03-1.20111707E-04 5.01109121E-07
 8  8-1.07505127E-02-7.33877835E-04-2.24716485E-03-3.25537553E-07-6.04990914E-03
 8  9-6.14767421E-03-6.69150296E-03 1.49438579E-04-7.12428054E-08-2.21439921E-08
 8 10-2.84277628E-05-3.75001403E-04-6.70549998E-06 3.59470624E-05 6.29314176E-08
 8 11 6.65804103E-04 2.32320937E-03 3.45797558E-03-9.07198980E-08 6.30159567E-05
 8 12 2.00772128E-05-1.41727101E-04-3.24570376E-05 1.28883673E-08-1.52966165E-08
 8 13-5.82101059E-04-1.15859503E-04 2.52740133E-05 2.87628418E-05-1.53744871E-07
 8 14-6.15271660E-04-7.58342718E-05 3.47817357E-04 9.59789234E-07 8.51700462E-05
 8 15 1.12595801E-05-6.01212066E-05 1.38028984E-05 3.31958195E-08 4.68439808E-08
 8 16-1.63800370E-04 1.60060221E-04-7.30592377E-05-6.46926367E-05 3.68655995E-08
 8 17 2.21906236E-04-1.78030166E-03-1.48311927E-03 3.40888472E-07-6.76752155E-04
 8 18-2.29825940E-04 8.18481726E-05-3.22947187E-04 1.82518673E-07 1.43133931E-07
 8 19 6.55990912E-05 2.75338284E-04 1.72838098E-05-2.82532844E-05-1.75793749E-08
 8 20-3.15753838E-03-7.25033983E-04 1.62253549E-03 4.14449208E-08 1.29341050E-04
 8 21 6.21929458E-05 1.25746883E-04 1.52038375E-05 9.61332557E-09-3.07248376E-08
 8 22-1.12357393E-04-5.04821430E-04-4.24147551E-05 6.48774111E-06-5.68778633E-08
 8 23 3.47114291E-03 7.82325947E-04 8.68959011E-05 3.96396296E-07-2.79565751E-04
 8 24-3.54775907E-04-2.85603311E-04-6.02558962E-06 2.74448425E-08 1.91928527E-08
 8 25-4.20460769E-05-1.86276536E-04-2.16659318E-05 4.32412132E-05 1.14962286E-08
 8 26 1.15172433E-03 4.18193894E-06-2.56845651E-04 4.33551074E-09-1.18988093E-04
 8 27-1.48510469E-04-1.16679417E-04-3.56313970E-06-3.63050728E-09-4.78431080E-09
 8 28-2.23797714E-04-3.15887903E-04-8.89535542E-05-1.74277135E-04-7.15998459E-06
 8 29 2.84367603E-04 1.47174659E-05-5.10011555E-05 1.47643924E-05-5.01875679E-05
 8 30-4.41560159E-04 1.69198763E-03
 9  1 7.99016341E-05-1.78141978E-04-4.83292967E-05-7.23055608E-05-6.10077918E-08
 9  2 2.00188054E-04 2.40966261E-03 1.93153816E-04 4.13832098E-07-3.62591710E-05
 9  3 2.00455409E-05-8.55376100E-05-1.15329230E-04 3.11459924E-08-1.21058082E-08
 9  4-7.06700357E-03-3.00835407E-04-1.58666503E-04-4.83096869E-05 4.04584936E-08
 9  5 3.37908771E-03 3.05111086E-03 5.42511587E-05 1.73357794E-07-4.23998902E-04
 9  6-1.83434137E-04-7.88308831E-05-1.51540861E-04-1.85692936E-08-8.70934851E-09
 9  7 2.20058547E-04-9.26172261E-05-7.53369058E-05-4.42995782E-05-1.36206469E-07
 9  8-6.89424353E-04 1.63621608E-04-2.09677345E-04 4.41223114E-07-4.07743198E-05
 9  9 1.77765082E-05-7.59125199E-05-7.40878297E-05 5.49480449E-08 3.84541393E-08
 9 10-4.01722599E-06-2.81979225E-05-2.06693548E-05 1.00984092E-05 6.15943894E-09
 9 11-1.41119278E-04-4.66078795E-04 1.52350439E-04 3.28789811E-08-3.80684736E-05
 9 12 7.27605174E-06-1.80563201E-05-2.76415656E-05 8.38811087E-09-1.36073344E-08
 9 13 9.94030486E-01 4.17423726E-02-2.52999264E-04-1.50062370E-04 2.40694869E-07
 9 14-1.73667390E-02 1.02594543E-03 7.51166817E-04-5.57931871E-07-6.22260061E-03
 9 15-6.23767730E-03-6.16899013E-03-3.97402738E-05-1.79231861E-08-6.67480790E-08
 9 16-3.15759637E-05-1.25270235E-04-2.49929551E-06-2.66589359E-05 6.64922444E-08
 9 17 9.38244853E-04 3.31925881E-05 4.79183892E-04-3.65059478E-07-2.42688161E-05
 9 18-4.75507097E-05-8.20895441E-05 2.33882964E-05-1.20092362E-08-4.29772521E-08
 9 19-5.96097716E-05-2.38543017E-04-4.94756136E-05-2.63440536E-05 2.45756501E-08
 9 20 2.05095843E-03 1.08976441E-03 6.90213036E-04 6.99531194E-08-4.19387197E-05
 9 21-1.10113764E-04-1.48953029E-04 5.95816579E-05 6.10930956E-09 2.15376543E-08
 9 22-1.12431000E-06-3.16806443E-06 3.49526675E-07 2.02562613E-06 5.72927618E-10
 9 23-8.70626579E-05 5.50848751E-05-1.77861625E-05-1.30383646E-08 1.85365384E-05
 9 24 1.55134123E-06-2.06326091E-05 1.31093198E-05 7.12250594E-09-2.39081248E-11
 9 25-2.65497313E-05-9.13860825E-05-3.65199487E-05 3.11707888E-05-1.07674478E-07
 9 26 3.85225814E-04-1.99798670E-04-1.25252387E-04 2.61966653E-07-8.80751103E-05
 9 27-8.22333464E-05-1.17543749E-04 4.52605625E-05 9.10941335E-08 1.45743196E-09
 9 28 2.22955228E-05 1.32838729E-04-1.52388679E-05 1.42110629E-04 6.98508837E-05
 9 29 2.73364886E-03 7.96716433E-05 2.71428570E-03 7.97640465E-05 2.71294363E-03
 9 30-1.20846825E-05-2.03531611E-04
10  1-2.88960766E-02 6.03930902E-02-2.19368040E-02-1.27948441E-02-4.16170692E-06
10  2-2.78243881E-02-4.65395030E-04 3.67632409E-02 3.02637292E-06 1.36932982E-03
10  3 1.98132055E-03-3.37092377E-03 2.55557668E-03 1.28048986E-06 7.65112633E-07
10  4-1.27780544E-02 2.05566889E-02-1.31118991E-02-3.75009560E-03-1.93669659E-07
10  5 6.87964108E-02-3.55325812E-02-2.71624985E-02-4.90737789E-06 1.61245134E-03
10  6 1.23284454E-03-1.94833557E-03 2.69285230E-05 2.24088325E-07 3.12346078E-07
10  7-2.00051056E-02 4.24056376E-02-2.79242111E-02-4.66382637E-03 3.05931530E-06
10  8-2.92913680E-02 2.82041132E-02-2.83251456E-02 9.16283669E-08 3.68837812E-03
10  9-5.69558790E-04-1.89577336E-03 1.88344494E-03-4.06275793E-07-4.57931108E-07
10 10-1.38419429E-01 2.75636885E-01-8.55095335E-02-4.98381192E-02-2.11073661E-05
10 11 1.57507168E-02 1.09608380E-02 5.83610494E-03 1.59814592E-06 1.05537409E-02
10 12-4.92615110E-03-2.32877080E-02 1.34628077E-02 8.67640497E-06 2.62514515E-06
10 13-1.52854769E-03 3.53652665E-03-2.76451183E-03-1.10664655E-03-3.76419491E-07
10 14 1.42656412E-02-3.56712771E-03-2.19238648E-03-4.69508461E-06 5.29694425E-04
10 15 1.28432488E-04 1.58028562E-04 1.09027335E-04 1.25946810E-07 1.64023775E-08
10 16-7.08058867E-02 1.42888655E-01-4.21554846E-02 1.99053080E-02-1.79409972E-05
10 17 1.58827068E-01-2.25300975E-02 2.52127947E-02-1.22013036E-05 8.60707922E-03
10 18 2.69906741E-03-7.43575343E-03-3.24194021E-03 3.07814867E-06-1.96308026E-06
10 19-6.99327050E-02 1.39443360E-01 1.08847647E-03-4.06061791E-02-6.76739343E-06
10 20 1.61540728E-01 1.49803951E-02-2.98897938E-02-1.39886557E-06 2.13995449E-03
10 21 9.44222710E-03-7.47053491E-03 1.41531922E-03 3.50120762E-06-2.34763482E-07
10 22-1.52256669E-01 3.26582208E-01 1.16361765E-01 6.27518413E-02 2.64337148E-05
10 23 3.14487026E-01 4.86361107E-02 2.58716721E-02 1.14077923E-05 8.24841997E-03
10 24-3.16485921E-03-6.64900638E-03 9.92667540E-03 4.03990492E-06 2.06728135E-06
10 25-1.53837901E-02 3.70115382E-02-2.67817497E-04-1.58426283E-02-1.03760660E-06
10 26 1.55831353E-02-2.15650981E-03-5.20069675E-03-8.72405223E-07 1.89921499E-04
10 27 3.59372215E-03 1.76585422E-04 1.95759339E-04 1.05310702E-07 3.64859867E-07
10 28 3.39054841E-02 1.89953519E-03 3.23890285E-02 2.19954148E-03 4.01563665E-04
10 29-4.63370272E-04 6.26984504E-04-3.76729573E-04 6.27798857E-04-3.81977992E-04
10 30 3.32034401E-03-1.45632679E-02
11  1-1.13727130E-01 2.19310825E-01-4.76474161E-02 4.26401180E-02-5.74733712E-06
11  2 4.85757687E-02 3.37176698E-02-3.85565449E-02 7.03271836E-07-1.52151660E-03
11  3 1.12472949E-02-1.65038679E-02 6.25362010E-04 2.88560226E-06 2.44202488E-06
11  4-4.11426956E-02 7.78149144E-02-3.85880089E-02 1.19397703E-02 3.14306048E-07
11  5 3.18380250E-02 2.19807059E-03-2.51454448E-03 7.42998843E-07 3.60184627E-03
11  6 1.38462601E-03-4.66807677E-03-3.33864208E-03 3.96773235E-07 3.08179736E-07
11  7-2.54289758E-02 4.95724314E-02-2.38574863E-02 8.88540878E-03 5.05024323E-06
11  8 1.42652081E-03 1.09392986E-02-3.82628564E-03-2.25295356E-06 2.58238049E-03
11  9 1.55452423E-03-3.13831898E-03 7.07901486E-04-4.70458864E-07-1.16288464E-07
11 10 1.25590448E-02-1.97268060E-02 1.15958520E-01 9.31238656E-02 2.41827048E-05
11 11-2.11302385E-02-4.05398357E-02-1.83245576E-02-7.79630418E-06-6.94519380E-03
11 12 1.16225839E-02 4.03818873E-03-1.00732977E-02-3.21899782E-06-2.67217248E-06
11 13-9.66577192E-03 1.86214684E-02-1.15183051E-02-3.13316373E-03-3.26504846E-06
11 14 7.82975476E-03-9.01691986E-05 1.38249757E-03-2.60730311E-07 2.07186932E-03
11 15 2.31419986E-04-1.71649253E-04 7.63873339E-04 8.61026115E-07-2.39036235E-07
11 16-3.40091720E-02 6.68220161E-02 1.12240490E-02 2.29681148E-02-4.51243774E-06
11 17 1.00306571E-01 7.99895850E-03 2.61373282E-02-3.96501749E-06-2.20180319E-03
11 18 2.72683477E-03-3.87115365E-03 3.22134768E-06-8.51050235E-07-1.07590617E-06
11 19-9.70642240E-02 1.97272205E-01 4.81655693E-02 2.77214724E-02-1.10292729E-06
11 20 2.25914238E-01 3.82524578E-02 1.91756816E-02 2.27767520E-06 8.18511210E-03
11 21 1.54350596E-03-9.22702601E-03 7.54597829E-04 5.79082032E-06-1.80463478E-06
11 22 9.07964686E-02-1.92262972E-01-5.77567781E-02-2.69633271E-02-1.35384090E-05
11 23-2.13701830E-01-2.45136921E-02-1.06309234E-02-6.03625555E-06-2.05843552E-03
11 24 3.59408978E-03 4.76674425E-03-3.49904940E-03-1.99441563E-06-7.92347699E-07
11 25-1.23371467E-01 2.70217072E-01 7.45228732E-03-1.00913141E-01-6.37952970E-06
11 26 2.89809736E-01 1.36203910E-03-6.24345045E-02-5.10840681E-06-7.22332141E-03
11 27 1.22657792E-02-6.02035972E-03-1.70443812E-03 3.30293383E-07 1.49837933E-06
11 28 1.22421025E-02 1.26851460E-04 4.70394368E-02-7.57192974E-04 3.27812094E-03
11 29-7.39607145E-04 4.34926223E-03 5.87483341E-04 4.35641476E-03 5.90837995E-04
11 30 6.08076372E-03-4.06551145E-03
12  1 4.06980057E-02-7.91798155E-02 1.63648274E-02-8.42123951E-02-2.95155695E-06
12  2-6.47533355E-02-8.73678588E-03 4.48119484E-02 1.82404423E-06 4.84403439E-03
12  3-9.04831978E-03 6.12340175E-03 3.12862514E-03-2.88606983E-07-9.88552021E-07
12  4-1.14869356E-02 1.73467504E-02 2.44516044E-04-3.77749532E-02-1.13109724E-06
12  5 5.97352691E-02-4.86372725E-02-3.43504465E-02-3.39432649E-06-1.22861170E-03
12  6 2.91650204E-03-2.38176595E-03 3.75603710E-03 3.18597346E-07 1.93380506E-07
12  7-6.68406544E-02 1.28705232E-01-7.86575554E-02-3.09728431E-02 1.31325568E-05
12  8 4.36755741E-03 2.72961082E-02-1.31888975E-02-2.36805230E-06 1.09632845E-02
12  9-6.24033119E-04-8.97152482E-03 7.57167764E-03-1.99763924E-06-1.45615113E-06
12 10-1.88248508E-02 4.01352822E-02 1.82102069E-01 7.69587697E-03 3.79287497E-05
12 11-2.00949198E-02-2.81116533E-02-6.41717101E-03-5.02449687E-06 3.39027687E-03
12 12 9.04604676E-04-1.60294464E-03-1.89319798E-02 3.87457439E-07-4.15265560E-06
12 13 1.89536663E-04-9.13722717E-04 7.12790333E-04-3.83496366E-03 1.45426495E-06
12 14 2.63132489E-02-7.02169004E-03-5.10332703E-03-1.09410525E-05-6.52309692E-05
12 15 3.50073195E-05-9.47855583E-07 5.05719703E-04-1.40676863E-07 3.35296129E-07
12 16-1.56142811E-01 3.21247039E-01 4.65217957E-03 2.41040507E-02-2.72958246E-05
12 17 3.71102589E-01 8.49941737E-03 3.60438333E-02-1.71042101E-05 2.01977223E-03
12 18 9.52972617E-03-1.46339721E-02 1.13604703E-03 1.72815589E-08-1.80072228E-06
12 19-1.11728912E-04-5.47852807E-03 1.01383611E-02-3.84603923E-02 2.53164859E-06
12 20 3.28712888E-02 2.68407086E-02-2.65671963E-02 5.32842806E-06-3.22818270E-03
12 21-9.36034685E-04-1.66148750E-03-4.78904092E-03-1.23317660E-06-1.70109426E-07
12 22 8.03357676E-02-1.73177159E-01-3.66820467E-02-3.37918055E-02-8.63877594E-06
12 23-1.80395490E-01-9.50814308E-03-1.46434927E-02-2.10838940E-06 9.11774098E-04
12 24 8.18263943E-06 3.19418571E-03-3.46086718E-03-7.49769658E-07-8.23573424E-07
12 25 9.45413868E-02-2.09283760E-01-7.50018179E-03 6.76993499E-02 4.41111886E-06
12 26-2.24162221E-01-3.82476995E-03 3.98645501E-02 3.12155522E-06 4.15283255E-03
12 27-6.92066859E-03 3.65228978E-03 1.37398673E-03-3.03428047E-07-8.57686830E-07