 $CONTRL SCFTYP=RHF RUNTYP=MAKEFP $END
 $system mwords=100 memddi=100 $end
 $BASIS  GBASIS=N31 NGAUSS=6 $END
 $guess  guess=huckel $end

 $DATA
methanol ... 6-31G
C1
O   8.0          0.9780137468   0.3369819147  -0.5454652509
H   1.0          1.2749585418   0.3411018259  -1.4396743480
C   6.0          1.6456070068  -0.6514356999   0.1899597994
H   1.0          1.2648443500  -0.6074183497   1.2008922435
H   1.0          1.4575961184  -1.6457042055  -0.2074508008
H   1.0          2.7185580278  -0.4784724869   0.2166613761
 $END
