 $CONTRL SCFTYP=RHF RUNTYP=ENERGY MAXIT=1 MULT=1 ispher=1 $END
 $contrl nprint=-5 inttyp=best $end
 $SYSTEM mwords=300 memddi=300 $END
 $BASIS gbasis=pcSeg-0 $END
 $SCF DIRSCF=.TRUE. $END
 $DATA 
DNA (ACGT)3
C1
H     1.0    -1.54700     9.37743    -1.21644
O     8.0    -1.44000     8.89599    -0.40059
P    15.0     0.00000     8.91000     0.00000
O     8.0     0.22000    10.17457     0.73384
O     8.0     0.79000     8.73346    -1.23964
O     8.0     0.25000     7.66872     0.97140
C     6.0    -0.69000     7.42405     2.04668
C     6.0     0.04000     6.86059     3.24661
O     8.0     0.25000     5.42934     3.03695
C     6.0     1.44000     7.41287     3.50796
O     8.0     1.83000     7.27073     4.86816
C     6.0     2.32000     6.52730     2.63741
C     6.0     1.61000     5.18420     2.73198
N     7.0     1.66000     4.38762     1.47840
C     6.0     1.58000     4.83651     0.18388
N     7.0     1.65000     3.88759    -0.69939
C     6.0     1.80000     2.74040     0.05756
C     6.0     1.93000     1.37902    -0.29393
N     7.0     1.94000     0.93802    -1.54797
N     7.0     2.05000     0.49182     0.70549
C     6.0     2.04000     0.93174     1.95979
N     7.0     1.92000     2.16017     2.41481
C     6.0     1.80000     3.02547     1.39121
H     1.0    -1.17800     8.36899     2.32520
H     1.0    -1.45000     6.70391     1.71179
H     1.0    -0.58200     7.03638     4.13219
H     1.0     2.07300     4.59931     3.54016
H     1.0     2.35300     6.88995     1.59871
H     1.0     3.34400     6.46840     3.03730
H     1.0     1.51000     8.47002     3.20749
H     1.0     1.46900     5.88850    -0.07655
H     1.0     1.85000     1.60276    -2.32875
H     1.0     2.03900    -0.06994    -1.73859
H     1.0     2.14700     0.16551     2.71897
P    15.0     3.37998     7.36179     5.01918
O     8.0     3.59998     7.99246     6.33724
O     8.0     4.16998     7.91334     3.89505
O     8.0     3.62998     5.78898     5.12256
C     6.0     2.68998     4.98046     5.87240
C     6.0     3.41998     3.83960     6.54718
O     8.0     3.62998     2.77471     5.56681
C     6.0     4.81998     4.14819     7.07337
O     8.0     5.20998     3.26503     8.11801
C     6.0     5.69998     3.90740     5.85609
C     6.0     4.98998     2.74440     5.17763
N     7.0     5.03998     2.79181     3.69235
C     6.0     5.18998     1.59232     3.00409
O     8.0     5.27998     0.53828     3.65053
N     7.0     5.23998     1.75498     1.50358
C     6.0     5.13998     2.77131     0.98156
N     7.0     5.18998     2.73860    -0.34301
C     6.0     4.98998     4.01938     1.66347
C     6.0     4.93998     3.97125     3.02146
H     1.0     2.19998     5.60366     6.63406
H     1.0     1.93098     4.57276     5.18854
H     1.0     2.79798     3.48598     7.37791
H     1.0     5.45298     1.80558     5.51495
H     1.0     5.73198     4.79216     5.20216
H     1.0     6.72398     3.63296     6.15245
H     1.0     4.88998     5.19084     7.42067
H     1.0     4.81798     4.89372     3.58609
H     1.0     4.91998     4.96171     1.12204
H     1.0     5.30798     1.83881    -0.83133
H     1.0     5.11098     3.61179    -0.88234
P    15.0     6.75996     3.25519     8.29409
O     8.0     6.97996     3.03348     9.73743
O     8.0     7.54996     4.34366     7.67512
O     8.0     7.00996     1.89744     7.49350
C     6.0     6.06996     0.80701     7.65759
C     6.0     6.79996    -0.51573     7.57246
O     8.0     7.00996    -0.84332     6.16257
C     6.0     8.19996    -0.55718     8.18105
O     8.0     8.58996    -1.87535     8.54667
C     6.0     9.07996    -0.07040     7.03965
C     6.0     8.36996    -0.64913     5.82394
N     7.0     8.41996     0.22678     4.62444
C     6.0     8.33996     1.60253     4.54474
N     7.0     8.41996     2.07227     3.32747
C     6.0     8.55996     0.93343     2.53352
C     6.0     8.68996     0.80764     1.13129
O     8.0     8.70996     1.68723     0.27193
N     7.0     8.80996    -0.53978     0.74501
C     6.0     8.80996    -1.61479     1.60962
N     7.0     8.93996    -2.82043     1.05131
N     7.0     8.67996    -1.49879     2.92878
C     6.0     8.55996    -0.20301     3.32381
H     1.0     5.58096     0.89297     8.63897
H     1.0     5.31096     0.85551     6.86389
H     1.0     6.17796    -1.27571     8.05865
H     1.0     8.83296    -1.62042     5.57217
H     1.0     9.11196     1.02884     6.99676
H     1.0    10.10396    -0.46410     7.12991
H     1.0     8.26996     0.10866     9.05535
H     1.0     8.22096     2.24065     5.42012
H     1.0     8.90296    -0.73323    -0.23181
H     1.0     8.93996    -3.66566     1.64048
H     1.0     9.04096    -2.90786     0.02848
P    15.0    10.13994    -1.98266     8.68661
O     8.0    10.35994    -2.97920     9.75522
O     8.0    10.92994    -0.73473     8.78934
O     8.0    10.38994    -2.65350     7.26029
C     6.0     9.44994    -3.64642     6.78072
C     6.0    10.17994    -4.69183     5.96614
O     8.0    10.38994    -4.16828     4.61669
C     6.0    11.57994    -5.06891     6.44563
O     8.0    11.96994    -6.36399     6.00517
C     6.0    12.45994    -4.02375     5.77677
C     6.0    11.74994    -3.81708     4.44629
N     7.0    11.79994    -2.41715     3.94779
C     6.0    11.94994    -2.23290     2.59048
O     8.0    12.03994    -3.15995     1.80674
N     7.0    11.98994    -0.91555     2.17517
C     6.0    11.89994     0.19832     2.97339
O     8.0    11.94994     1.33363     2.48472
C     6.0    11.74994    -0.08934     4.37909
C     6.0    11.63994     1.09715     5.28737
C     6.0    11.69994    -1.36238     4.82121
H     1.0     8.95994    -4.12870     7.64088
H     1.0     8.69094    -3.15926     6.15225
H     1.0     9.55794    -5.59364     5.93973
H     1.0    12.21294    -4.47330     3.69496
H     1.0    12.49194    -3.09178     6.36146
H     1.0    13.48394    -4.39988     5.62957
H     1.0    11.64994    -5.01128     7.54309
H     1.0    11.57894    -1.55594     5.88685
H     1.0    12.60894     1.27741     5.77747
H     1.0    10.87194     0.90565     6.04959
H     1.0    11.35994     1.98455     4.69913
H     1.0    12.09594    -0.75875     1.19319
H     1.0    11.83894    -6.43071     5.05715
 $END
!TRAVIS-CI SKIP
!Only runs one SCF iteration

