!
!  FINAL ROHF ENERGY IS      -77.9045298335 AFTER   3 ITERATIONS
!  ALL CI Energies:
!   STATE   1  ENERGY=       -78.0932369056  S=  0.00  SZ=  0.00  SPACE SYM=A   
!   STATE   2  ENERGY=       -77.9255922428  S=  1.00  SZ=  0.00  SPACE SYM=A   
!   STATE   3  ENERGY=       -77.7604567826  S=  0.00  SZ=  0.00  SPACE SYM=A   
!   STATE   4  ENERGY=       -77.7258343439  S=  1.00  SZ=  0.00  SPACE SYM=A   
!   STATE   5  ENERGY=       -77.7103291549  S=  0.00  SZ=  0.00  SPACE SYM=A   
!   STATE   6  ENERGY=       -77.7038367168  S=  1.00  SZ=  0.00  SPACE SYM=A
!
!  SF-ORMAS-TOTAL ENERGY STATE 1      =   -78.0932369056 
!  SF-ORMAS-PDFT TOTAL ENERGY STATE 1 =   -78.4430081109
!
!
 $CONTRL SCFTYP=ROHF RUNTYP=ENERGY MAXIT=200 MULT=3 CITYP=SFORM PDFTYP=TPBE
  EXETYP=RUN $END
 $SYSTEM TIMLIM=525600 MEMORY=400000000 $END
 $BASIS GBASIS=N31 NGAUSS=6 NDFUNC=1 $END
 $GUESS GUESS=MOREAD NORB=14 $END
 $SCF DIRSCF=.T. $END
 $CIDET NSTATE=6 ITERMX=400 NCORE=0 NACT=38 NELS=16 MULSF=1 $END  
 $ORMAS NSPACE=3 MSTART(1)=1,8,10 MINE(1)=13,1,0 MAXE(1)=14,3,1 $END
 $DFT NRAD=99 NLEB=590 $END 
 $DATA 
Title
C1
C     6.0    -0.00000    -0.00000     0.67320
C     6.0     0.00000    -0.00000    -0.67320
H     1.0    -0.00000    -0.91813    -1.23698
H     1.0     0.00000     0.91813     1.23698
H     1.0    -0.00000    -0.91813     1.23698
H     1.0     0.00000     0.91813    -1.23698
 $END
 $VEC
 1  1 7.04026997E-01 1.92910004E-02 0.00000000E+00 0.00000000E+00 1.00999998E-04
 1  2-5.75499982E-03 0.00000000E+00 0.00000000E+00-4.45999991E-04-2.03399989E-03
 1  3-1.80700002E-03-1.69599999E-03 0.00000000E+00 0.00000000E+00 0.00000000E+00
 1  4 7.04026997E-01 1.92910004E-02 0.00000000E+00 0.00000000E+00-1.00999998E-04
 1  5-5.75499982E-03 0.00000000E+00 0.00000000E+00 4.45999991E-04-2.03399989E-03
 1  6-1.80700002E-03-1.69599999E-03 0.00000000E+00 0.00000000E+00 0.00000000E+00
 1  7-2.96000013E-04 1.39200001E-03-2.96000013E-04 1.39200001E-03-2.96000013E-04
 1  8 1.39200001E-03-2.96000013E-04 1.39200001E-03
 2  1-7.04310000E-01-1.98170003E-02-0.00000000E+00-0.00000000E+00 9.44000029E-04
 2  2 1.09489998E-02-0.00000000E+00-0.00000000E+00-1.56600005E-03 1.82100001E-03
 2  3 1.53400004E-03 9.27000016E-04-0.00000000E+00-0.00000000E+00-0.00000000E+00
 2  4 7.04310000E-01 1.98170003E-02-0.00000000E+00-0.00000000E+00 9.44000029E-04
 2  5-1.09489998E-02-0.00000000E+00-0.00000000E+00-1.56600005E-03-1.82100001E-03
 2  6-1.53400004E-03-9.27000016E-04-0.00000000E+00-0.00000000E+00-0.00000000E+00
 2  7-2.72000005E-04 1.33400003E-03 2.72000005E-04-1.33400003E-03 2.72000005E-04
 2  8-1.33400003E-03-2.72000005E-04 1.33400003E-03
 3  1-1.54211000E-01 2.98981994E-01-0.00000000E+00-0.00000000E+00-1.09568998E-01
 3  2 2.19578996E-01-0.00000000E+00-0.00000000E+00-8.64499994E-03-1.42480005E-02
 3  3 7.49500003E-03 1.99239999E-02-0.00000000E+00-0.00000000E+00-0.00000000E+00
 3  4-1.54211000E-01 2.98981994E-01-0.00000000E+00-0.00000000E+00 1.09568998E-01
 3  5 2.19578996E-01-0.00000000E+00-0.00000000E+00 8.64499994E-03-1.42480005E-02
 3  6 7.49500003E-03 1.99239999E-02-0.00000000E+00-0.00000000E+00-0.00000000E+00
 3  7 8.36070031E-02 2.09449995E-02 8.36070031E-02 2.09449995E-02 8.36070031E-02
 3  8 2.09449995E-02 8.36070031E-02 2.09449995E-02
 4  1 1.20479003E-01-2.29023993E-01-0.00000000E+00-0.00000000E+00-1.58500999E-01
 4  2-2.75337994E-01-0.00000000E+00-0.00000000E+00-4.51730005E-02 7.93199986E-03
 4  3-2.42979992E-02 2.30999989E-03-0.00000000E+00-0.00000000E+00-0.00000000E+00
 4  4-1.20479003E-01 2.29023993E-01-0.00000000E+00-0.00000000E+00-1.58500999E-01
 4  5 2.75337994E-01-0.00000000E+00-0.00000000E+00-4.51730005E-02-7.93199986E-03
 4  6 2.42979992E-02-2.30999989E-03-0.00000000E+00-0.00000000E+00-0.00000000E+00
 4  7 1.44565001E-01 6.79380000E-02-1.44565001E-01-6.79380000E-02-1.44565001E-01
 4  8-6.79380000E-02 1.44565001E-01 6.79380000E-02
 5  1-0.00000000E+00-0.00000000E+00-0.00000000E+00 3.20169002E-01 0.00000000E+00
 5  2-0.00000000E+00-0.00000000E+00 1.38261005E-01-0.00000000E+00-0.00000000E+00
 5  3-0.00000000E+00-0.00000000E+00-0.00000000E+00-0.00000000E+00 9.95399989E-03
 5  4-0.00000000E+00-0.00000000E+00-0.00000000E+00 3.20169002E-01-0.00000000E+00
 5  5-0.00000000E+00-0.00000000E+00 1.38261005E-01-0.00000000E+00-0.00000000E+00
 5  6-0.00000000E+00-0.00000000E+00-0.00000000E+00-0.00000000E+00-9.95399989E-03
 5  7-1.55532002E-01-1.02048002E-01 1.55532002E-01 1.02048002E-01-1.55532002E-01
 5  8-1.02048002E-01 1.55532002E-01 1.02048002E-01
 6  1-1.03310002E-02 3.10410000E-02-0.00000000E+00 0.00000000E+00-4.05759007E-01
 6  2-1.48679996E-02-0.00000000E+00 0.00000000E+00-1.51446998E-01-1.16099999E-03
 6  3-2.67840009E-02 1.75979994E-02-0.00000000E+00-0.00000000E+00-0.00000000E+00
 6  4-1.03310002E-02 3.10410000E-02-0.00000000E+00-0.00000000E+00 4.05759007E-01
 6  5-1.48679996E-02-0.00000000E+00-0.00000000E+00 1.51446998E-01-1.16099999E-03
 6  6-2.67840009E-02 1.75979994E-02-0.00000000E+00-0.00000000E+00-0.00000000E+00
 6  7-1.25011995E-01-1.03410996E-01-1.25011995E-01-1.03410996E-01-1.25011995E-01
 6  8-1.03410996E-01-1.25011995E-01-1.03410996E-01
 7  1 0.00000000E+00 0.00000000E+00 0.00000000E+00-3.04818004E-01-0.00000000E+00
 7  2 0.00000000E+00 0.00000000E+00-2.07506001E-01 0.00000000E+00 0.00000000E+00
 7  3 0.00000000E+00 0.00000000E+00 0.00000000E+00 0.00000000E+00-3.32479998E-02
 7  4 0.00000000E+00 0.00000000E+00 0.00000000E+00 3.04818004E-01 0.00000000E+00
 7  5 0.00000000E+00 0.00000000E+00 2.07506001E-01 0.00000000E+00 0.00000000E+00
 7  6 0.00000000E+00 0.00000000E+00 0.00000000E+00 0.00000000E+00-3.32479998E-02
 7  7-1.86922997E-01-1.48586005E-01-1.86922997E-01-1.48586005E-01 1.86922997E-01
 7  8 1.48586005E-01 1.86922997E-01 1.48586005E-01
 8  1-0.00000000E+00-0.00000000E+00 4.16823000E-01-0.00000000E+00-0.00000000E+00
 8  2-0.00000000E+00 2.72736996E-01-0.00000000E+00-0.00000000E+00-0.00000000E+00
 8  3-0.00000000E+00-0.00000000E+00-0.00000000E+00-1.55290002E-02-0.00000000E+00
 8  4-0.00000000E+00-0.00000000E+00 4.16823000E-01-0.00000000E+00-0.00000000E+00
 8  5-0.00000000E+00 2.72736996E-01-0.00000000E+00-0.00000000E+00-0.00000000E+00
 8  6-0.00000000E+00-0.00000000E+00-0.00000000E+00 1.55290002E-02-0.00000000E+00
 8  7-0.00000000E+00-0.00000000E+00-0.00000000E+00-0.00000000E+00-0.00000000E+00
 8  8-0.00000000E+00-0.00000000E+00-0.00000000E+00
 9  1 0.00000000E+00 0.00000000E+00-4.50816005E-01 0.00000000E+00 0.00000000E+00
 9  2 0.00000000E+00-5.79663992E-01 0.00000000E+00 0.00000000E+00 0.00000000E+00
 9  3 0.00000000E+00 0.00000000E+00 0.00000000E+00-2.12609991E-02 0.00000000E+00
 9  4 0.00000000E+00 0.00000000E+00 4.50816005E-01 0.00000000E+00 0.00000000E+00
 9  5 0.00000000E+00 5.79663992E-01 0.00000000E+00 0.00000000E+00 0.00000000E+00
 9  6 0.00000000E+00 0.00000000E+00 0.00000000E+00-2.12609991E-02 0.00000000E+00
 9  7 0.00000000E+00 0.00000000E+00 0.00000000E+00 0.00000000E+00 0.00000000E+00
 9  8 0.00000000E+00 0.00000000E+00 0.00000000E+00
10  1 1.36795998E-01-6.18434012E-01 0.00000000E+00 0.00000000E+00-2.50160005E-02
10  2-8.32157016E-01 0.00000000E+00 0.00000000E+00-2.36400007E-03 8.36499967E-03
10  3 1.37750003E-02 1.13469996E-02 0.00000000E+00 0.00000000E+00 0.00000000E+00
10  4-1.36795998E-01 6.18434012E-01 0.00000000E+00 0.00000000E+00-2.50160005E-02
10  5 8.32157016E-01 0.00000000E+00 0.00000000E+00-2.36400007E-03-8.36499967E-03
10  6-1.37750003E-02-1.13469996E-02 0.00000000E+00 0.00000000E+00 0.00000000E+00
10  7-2.94703007E-01-4.59468007E-01 2.94703007E-01 4.59468007E-01 2.94703007E-01
10  8 4.59468007E-01-2.94703007E-01-4.59468007E-01
11  1-8.85339975E-02 4.78682995E-01-0.00000000E+00-0.00000000E+00 3.56644988E-01
11  2 5.79178989E-01-0.00000000E+00-0.00000000E+00 2.74089992E-01 1.00999998E-04
11  3-1.93999993E-04-1.93300005E-03-0.00000000E+00-0.00000000E+00-0.00000000E+00
11  4-8.85339975E-02 4.78682995E-01-0.00000000E+00-0.00000000E+00-3.56644988E-01
11  5 5.79178989E-01-0.00000000E+00-0.00000000E+00-2.74089992E-01 1.00999998E-04
11  6-1.93999993E-04-1.93300005E-03-0.00000000E+00-0.00000000E+00-0.00000000E+00
11  7-2.96599001E-01-4.75567013E-01-2.96599001E-01-4.75567013E-01-2.96599001E-01
11  8-4.75567013E-01-2.96599001E-01-4.75567013E-01
12  1-0.00000000E+00 0.00000000E+00-0.00000000E+00 5.10724008E-01 0.00000000E+00
12  2 0.00000000E+00-0.00000000E+00 3.57587010E-01 0.00000000E+00-0.00000000E+00
12  3-0.00000000E+00-0.00000000E+00-0.00000000E+00-0.00000000E+00 6.60000020E-04
12  4-0.00000000E+00 0.00000000E+00-0.00000000E+00 5.10724008E-01-0.00000000E+00
12  5 0.00000000E+00-0.00000000E+00 3.57587010E-01-0.00000000E+00-0.00000000E+00
12  6-0.00000000E+00-0.00000000E+00-0.00000000E+00-0.00000000E+00-6.60000020E-04
12  7 3.61698002E-01 4.60887998E-01-3.61698002E-01-4.60887998E-01 3.61698002E-01
12  8 4.60887998E-01-3.61698002E-01-4.60887998E-01
13  1 0.00000000E+00 0.00000000E+00 0.00000000E+00-7.31997013E-01-0.00000000E+00
13  2 0.00000000E+00 0.00000000E+00-4.19467986E-01-0.00000000E+00 0.00000000E+00
13  3 0.00000000E+00 0.00000000E+00 0.00000000E+00 0.00000000E+00 1.95999994E-04
13  4 0.00000000E+00-0.00000000E+00 0.00000000E+00 7.31997013E-01-0.00000000E+00
13  5-0.00000000E+00 0.00000000E+00 4.19467986E-01-0.00000000E+00 0.00000000E+00
13  6 0.00000000E+00 0.00000000E+00 0.00000000E+00 0.00000000E+00 1.95999994E-04
13  7 3.46175998E-01 4.29078013E-01 3.46175998E-01 4.29078013E-01-3.46175998E-01
13  8-4.29078013E-01-3.46175998E-01-4.29078013E-01
14  1 5.38140014E-02-3.42557013E-01 0.00000000E+00-0.00000000E+00 8.64077985E-01
14  2-5.27866006E-01 0.00000000E+00-0.00000000E+00 6.41744018E-01 5.42900013E-03
14  3 6.84500020E-03-2.26569995E-02 0.00000000E+00 0.00000000E+00 0.00000000E+00
14  4-5.38140014E-02 3.42557013E-01 0.00000000E+00 0.00000000E+00 8.64077985E-01
14  5 5.27866006E-01 0.00000000E+00 0.00000000E+00 6.41744018E-01-5.42900013E-03
14  6-6.84500020E-03 2.26569995E-02 0.00000000E+00 0.00000000E+00 0.00000000E+00
14  7 1.77765995E-01 1.71448007E-01-1.77765995E-01-1.71448007E-01-1.77765995E-01
14  8-1.71448007E-01 1.77765995E-01 1.71448007E-01
 $END
