 $CONTRL 
   SCFTYP=REKS
   RUNTYP=GRADIENT
   DFTTYP=BHHLYP
   ICHARG=0
   MAXIT=200
   MULT=1
   NUMGRD=.T.
 $END
 $DFT 
   SWITCH=1.0 
 $END
 LC=.T.
 $SCF
   NCONV=6
 $END
 $REKS
   rexType=1
   rexTarget=1
   wpps=0.5
   rexShift=0.3
   rexDIIS=no
   rexLdL=0
   rlxDen=no
   rexEKT=yes
   EKTEA=yes
   rexCG=yes
 $END
 $GUESS GUESS=MOREAD NORB=19 $END
 $BASIS GBASIS=N31 NGAUSS=6 NDFUNC=1 $END
 $SYSTEM TIMLIM=999999100 MWORDS=500 $END
 $DATA

 c1
O     8.0     0.00000000     0.00000000     0.00000000
H     1.0     1.00000000     0.50000000     0.00000000
H     1.0    -1.00000000     0.50000000     0.00000000
 $end
 $VEC   
 1  1 9.93221781E-01 2.53871089E-02 6.62841429E-10 1.02359163E-03 0.00000000E+00
 1  2 8.55677883E-03-5.67145483E-10-1.46449472E-04 0.00000000E+00-7.03636420E-03
 1  3-6.99823975E-03-6.97600376E-03-6.58118092E-11 0.00000000E+00 0.00000000E+00
 1  4 3.40935705E-04-8.27266346E-04 3.40935573E-04-8.27266813E-04
 2  1-2.15876755E-01 4.80164104E-01-1.35398348E-07 7.59652960E-02 0.00000000E+00
 2  2 4.93926113E-01 6.37106889E-07 4.94220827E-02 0.00000000E+00 2.70236643E-02
 2  3 3.81283758E-03-1.04987476E-02 8.17621285E-08 0.00000000E+00 0.00000000E+00
 2  4 1.05605110E-01 1.30673787E-02 1.05605653E-01 1.30684365E-02
 3  1 1.41270837E-07 7.84064337E-07 4.83737432E-01 2.72393711E-08 0.00000000E+00
 3  2-3.24100224E-06 2.88087339E-01-8.76295521E-07 0.00000000E+00 2.56049434E-07
 3  3 4.73328566E-07 5.62541370E-07 3.31763183E-02 0.00000000E+00 0.00000000E+00
 3  4 2.30794476E-01 1.49028287E-01-2.30793701E-01-1.49025495E-01
 4  1 6.74227731E-02-1.38891748E-01 9.49896206E-09 5.64152068E-01 0.00000000E+00
 4  2-3.19385392E-01 1.31395519E-06 4.17681769E-01 0.00000000E+00 5.03853909E-03
 4  3 3.62940519E-02-1.79218888E-03 1.21349383E-07 0.00000000E+00 0.00000000E+00
 4  4 1.34190550E-01 1.40672160E-01 1.34191178E-01 1.40674479E-01
 5  1 0.00000000E+00 0.00000000E+00 0.00000000E+00 0.00000000E+00 6.41934101E-01
 5  2 0.00000000E+00 0.00000000E+00 0.00000000E+00 5.09309977E-01 0.00000000E+00
 5  3 0.00000000E+00 0.00000000E+00 0.00000000E+00-1.15889944E-08 2.42107338E-02
 5  4 0.00000000E+00 0.00000000E+00 0.00000000E+00 0.00000000E+00
 6  1-1.00685970E-01 1.47159001E-01 4.36851831E-07 2.89794468E-01 0.00000000E+00
 6  2 9.73743652E-01-2.83042417E-06 3.88313719E-01 0.00000000E+00-4.40281651E-02
 6  3-2.18622049E-02-4.04553380E-02-2.64914250E-07 0.00000000E+00 0.00000000E+00
 6  4-1.82510017E-01-8.06253440E-01-1.82510714E-01-8.06260486E-01
 7  1 2.76278534E-07 8.85521631E-07-4.46821341E-01 4.03274356E-07 0.00000000E+00
 7  2-5.41629029E-06-7.40316048E-01-1.19454626E-06 0.00000000E+00 3.01311209E-07
 7  3 6.27087207E-07 7.47064856E-07-1.27227152E-02 0.00000000E+00 0.00000000E+00
 7  4 1.22312543E-01 1.01363426E+00-1.22312363E-01-1.01362784E+00
 8  1 3.01179629E-02-1.47206955E-01-8.54406702E-07-2.22527832E-01 0.00000000E+00
 8  2 3.82398004E-01 1.51655754E-06 4.45525167E-02 0.00000000E+00 1.75482951E-01
 8  3-5.99443969E-02-1.07062215E-01-1.62434227E-07 0.00000000E+00 0.00000000E+00
 8  4 8.16357359E-01-7.51475553E-01 8.16361311E-01-7.51479216E-01
 9  1-1.67402483E-07-3.10953547E-06 4.38749851E-01-7.07739291E-07 0.00000000E+00
 9  2 6.23702682E-06-1.98880146E-01 1.39426775E-06 0.00000000E+00-1.50553035E-06
 9  3-1.02806366E-06-9.69082809E-07-1.82274893E-01 0.00000000E+00 0.00000000E+00
 9  4-8.08394767E-01 8.91140746E-01 8.08391337E-01-8.91139990E-01
10  1 0.00000000E+00 0.00000000E+00 0.00000000E+00 0.00000000E+00-9.61220712E-01
10  2 0.00000000E+00 0.00000000E+00 0.00000000E+00 1.03733786E+00 0.00000000E+00
10  3 0.00000000E+00 0.00000000E+00 0.00000000E+00-2.30367268E-08 1.13190226E-02
10  4 0.00000000E+00 0.00000000E+00 0.00000000E+00 0.00000000E+00
11  1-7.97046158E-03-6.30609181E-01 1.65404184E-07 8.45243278E-01 0.00000000E+00
11  2 1.15711485E+00-2.76884908E-07-9.07494486E-01 0.00000000E+00-1.67262030E-01
11  3-2.30205131E-01-2.22064351E-01 3.48870062E-08 0.00000000E+00 0.00000000E+00
11  4 1.11486745E-01-1.55721980E-01 1.11486577E-01-1.55722047E-01
12  1-6.21440389E-02-1.47721976E+00-1.36465159E-06-4.25612794E-01 0.00000000E+00
12  2 3.25081104E+00 8.19559793E-07 7.66516205E-01 0.00000000E+00-5.99393801E-01
12  3-3.96499139E-01-3.78403442E-01 5.06238707E-07 0.00000000E+00 0.00000000E+00
12  4-1.32222398E-01-6.85115829E-01-1.32225822E-01-6.85113178E-01
13  1-6.83153619E-08 7.28261989E-07-8.91756907E-01 6.07959923E-07 0.00000000E+00
13  2-9.05742224E-07 1.62870741E+00-4.40609548E-07 0.00000000E+00-2.12783576E-07
13  3 1.92526254E-07 2.64768950E-07-2.06171906E-01 0.00000000E+00 0.00000000E+00
13  4-3.01288642E-01-4.90400676E-01 3.01286385E-01 4.90401965E-01
14  1 0.00000000E+00 0.00000000E+00 0.00000000E+00 0.00000000E+00-1.38423849E-08
14  2 0.00000000E+00 0.00000000E+00 0.00000000E+00 3.42486535E-08 0.00000000E+00
14  3 0.00000000E+00 0.00000000E+00 0.00000000E+00 1.00000000E+00-1.84160288E-07
14  4 0.00000000E+00 0.00000000E+00 0.00000000E+00 0.00000000E+00
15  1 3.74191446E-03 4.81085703E-02 3.69380565E-08 6.77245273E-03 0.00000000E+00
15  2-1.14118056E-01-5.45020855E-08-6.69373833E-02 0.00000000E+00-2.84711044E-01
15  3 9.87564901E-01-6.64342625E-01-9.37743972E-09 0.00000000E+00 0.00000000E+00
15  4 5.25816879E-02 7.62245164E-03 5.25817352E-02 7.62240333E-03
16  1 0.00000000E+00 0.00000000E+00 0.00000000E+00 0.00000000E+00-4.66328239E-03
16  2 0.00000000E+00 0.00000000E+00 0.00000000E+00-2.40810209E-02 0.00000000E+00
16  3 0.00000000E+00 0.00000000E+00 0.00000000E+00 1.84767620E-07 9.99642796E-01
16  4 0.00000000E+00 0.00000000E+00 0.00000000E+00 0.00000000E+00
17  1-2.40234994E-02-3.93109577E-01-1.09603741E-08-8.41380872E-02 0.00000000E+00
17  2 8.44042632E-01-5.24031714E-07 3.55238093E-01 0.00000000E+00 9.62873166E-01
17  3-3.13142068E-01-8.65771813E-01-8.42302574E-07 0.00000000E+00 0.00000000E+00
17  4-5.99024225E-01 3.29814858E-02-5.99025813E-01 3.29815663E-02
18  1-8.52552878E-08 3.46724365E-08-2.12198377E-01 6.90435238E-08 0.00000000E+00
18  2 6.18214787E-07 8.20283866E-01 1.81680215E-07 0.00000000E+00 6.13810573E-07
18  3-3.45867762E-07-7.85668980E-07 1.08127199E+00 0.00000000E+00 0.00000000E+00
18  4-6.93713463E-01 2.36871311E-02 6.93711741E-01-2.36868041E-02
19  1-4.55113457E-01 3.68925010E-01-1.06496247E-08-7.00496860E-02 0.00000000E+00
19  2 3.36035218E+00-1.47061787E-07 2.15903339E-01 0.00000000E+00-1.44388169E+00
19  3-1.51917380E+00-1.54458998E+00-1.00426381E-07 0.00000000E+00 0.00000000E+00
19  4 8.06710202E-02-4.56837831E-01 8.06705891E-02-4.56837845E-01
 $END   

! TRAVIS-CI MEDIUM

