!          ---------------------
!          ELECTROSTATIC MOMENTS
!          ---------------------
!
! POINT   1           X           Y           Z (BOHR)    CHARGE
!                 0.115463    0.048577   -0.013117       -0.00 (A.U.)
!         DX          DY          DZ         /D/  (DEBYE)
!     0.994499    0.681318    1.718525    2.099179
!        QXX         QYY         QZZ         QXY         QXZ         QYZ
!    11.292950  -17.113584    5.820634   13.264686   16.058519    8.970889
!        OXXX        OXXY        OXXZ        OXYY        OYYY        OYYZ
!    82.077632  214.646372   92.903606  -99.274929 -150.356094  -16.981440
!        OXZZ        OYZZ        OZZZ        OXYZ  (X10**34 ESU-CM**3)
!    17.197297  -64.290278  -75.922165   58.841161
!
 $CONTRL SCFTYP=RHF RUNTYP=energy $end
 $contrl maxit=90 ispher=1 icut=11 itol=30 $end
 $contrl nzvar=1 $end
 *** $contrl molplt=.t. exetyp=check $end
 !
 $SYSTEM MWORDS=25 $END
 !
 $elmom iemom=3 $end
 !
 $BASIS gbasis=accd  $end
 $scf fdiff=.f. dirscf=.t. damp=.t. conv=2.5d-07 $end
 *** $guess guess=moread $end
 !
 $STATPT NSTEP=200 opttol=0.000005 hssend=.f. $END
 *** $FORCE rdhess=.t. $end
 *** $force purify=.t. $end
 $zmat auto=.t. dlc=.t. $end
 !
 $DATA
  m06/pcseg-2 Span-80
 C1
 O01         8.0   9.6852512487   0.2056296061  -0.9831977815
 C02         6.0   9.9719105938   1.5671976827  -0.7092072891
 C03         6.0  10.6844300533   1.5139312073   0.6213262550
 C04         6.0   9.7947582655   0.5172262866   1.3734219664
 C05         6.0   9.4238104848  -0.4633693729   0.2570790344
 C06         6.0   8.0254576014  -1.0659146255   0.2504575075
 H07         1.0  10.1089222203  -1.3163565442   0.3100166412
 O08         8.0   8.6468058240   1.1396147691   1.9013675545
 H09         1.0  10.3670207851   0.0096637535   2.1554845991
 H10         1.0   8.9036806145   1.6837638984   2.6452575961
 H11         1.0  10.7247697656   2.4777172370   1.1323960742
 O12         8.0  12.0003708453   1.0360609240   0.5026804231
 H13         1.0  12.0261015456   0.3862624016  -0.2030135192
 H14         1.0   9.0539597243   2.1626048005  -0.6380758380
 H15         1.0  10.5934778841   1.9625931478  -1.5123450524
 C16         6.0   6.9590349002  -0.0944376918  -0.1995335666
 O17         8.0   5.6988418910  -0.7222833057   0.0164450937
 C18         6.0   4.6242231685  -0.0382645361  -0.3979843389
 O19         8.0   4.6845148829   1.0369133000  -0.9251805951
 C20         6.0   3.3677056394  -0.8068208539  -0.1114594324
 C21         6.0   2.1030242278  -0.0622432764  -0.4768928615
 C22         6.0   0.8552181745  -0.8656735469  -0.1688397470
 C23         6.0  -0.4251260299  -0.1291529312  -0.5090339351
 C24         6.0  -1.6752253156  -0.9286521470  -0.2001300054
 C25         6.0  -2.9564485020  -0.1874456216  -0.5256831493
 C26         6.0  -4.2067450321  -0.9961384151  -0.2094037754
 C27         6.0  -5.4623979461  -0.2761165308  -0.5599458058
 C28         6.0  -6.4197577573   0.0564766325   0.2929615895
 C29         6.0  -7.6748160127   0.7784892716  -0.0553764961
 C30         6.0  -8.9264250808  -0.0238499449   0.2715263184
 C31         6.0 -10.2069144696   0.7245774930  -0.0401215631
 C32         6.0 -11.4585205067  -0.0675858802   0.2816077262
 C33         6.0 -12.7391531055   0.6818731394  -0.0285883499
 C34         6.0 -13.9917378808  -0.1078231173   0.2944605902
 C35         6.0 -15.2729149992   0.6426425155  -0.0147039036
 C36         6.0 -16.5145420734  -0.1609341033   0.3143436945
 H37         1.0 -17.4293822851   0.3870281090   0.0886507646
 H38         1.0 -16.5391848119  -0.4253763954   1.3734570505
 H39         1.0 -16.5379773713  -1.0933329852  -0.2534048055
 H40         1.0 -15.2795899601   1.5851515472   0.5422763079
 H41         1.0 -15.2784288404   0.9216507455  -1.0733395139
 H42         1.0 -13.9812428117  -1.0523381668  -0.2624218404
 H43         1.0 -13.9826112977  -0.3883488613   1.3544668785
 H44         1.0 -12.7511587644   1.6264306251   0.5279880137
 H45         1.0 -12.7488164936   0.9615416857  -1.0886760999
 H46         1.0 -11.4452530704  -1.0115204690  -0.2757034948
 H47         1.0 -11.4490081746  -0.3479582916   1.3414742792
 H48         1.0 -10.2206823999   1.6689446343   0.5167607583
 H49         1.0 -10.2158861493   1.0043208766  -1.1001597959
 H50         1.0  -8.9049484028  -0.9676180038  -0.2836128479
 H51         1.0  -8.9137367983  -0.3000800012   1.3321147969
 H52         1.0  -7.7202949068   1.7283629097   0.4909040031
 H53         1.0  -7.6695790168   1.0359148320  -1.1192430056
 H54         1.0  -6.3084289517  -0.2310530219   1.3380784663
 H55         1.0  -5.5730996053   0.0112858354  -1.6051028687
 H56         1.0  -4.1550844248  -1.9433934512  -0.7595718614
 H57         1.0  -4.2163417940  -1.2580374650   0.8533712316
 H58         1.0  -2.9881354052   0.7564736789   0.0286368779
 H59         1.0  -2.9604018251   0.0880367557  -1.5864519271
 H60         1.0  -1.6503738139  -1.8737919031  -0.7552701283
 H61         1.0  -1.6761620815  -1.2065028224   0.8605072802
 H62         1.0  -0.4542705652   0.8193160597   0.0395034008
 H63         1.0  -0.4180793917   0.1417624551  -1.5710768502
 H64         1.0   0.8847832460  -1.8153895289  -0.7160807955
 H65         1.0   0.8458952963  -1.1357040152   0.8939336521
 H66         1.0   2.0732706318   0.8907096309   0.0588295650
 H67         1.0   2.1263637822   0.2002667423  -1.5379173667
 H68         1.0   3.4341939988  -1.7586710176  -0.6472510703
 H69         1.0   3.3752689275  -1.0783201375   0.9480711225
 H70         1.0   7.0059106326   0.8385879950   0.3591336782
 H71         1.0   7.0784351539   0.1384500384  -1.2609657360
 H72         1.0   7.7899335756  -1.4054109868   1.2629548244
 O73         8.0   8.0167477785  -2.2219643176  -0.5577937304
 H74         1.0   8.2202264116  -1.9517357441  -1.4561667894
 $end
! TRAVIS-CI LARGE
! TRAVIS-CI LONG 
! TRAVIS-CI SKIP
