!          ---------------------
!          ELECTROSTATIC MOMENTS
!          ---------------------
!
! POINT   1           X           Y           Z (BOHR)    CHARGE
!                 0.037368   -0.147210   -0.047477        0.00 (A.U.)
!         DX          DY          DZ         /D/  (DEBYE)
!    13.482910   -2.755354    1.130434   13.807923
!        QXX         QYY         QZZ         QXY         QXZ         QYZ
!     8.000100  -75.214886   67.214787  -31.421608   12.735096    4.219034
!        OXXX        OXXY        OXXZ        OXYY        OYYY        OYYZ
!  -535.641239  183.062120  119.621303 1044.577182 -276.612893   24.798844
!        OXZZ        OYZZ        OZZZ        OXYZ  (X10**34 ESU-CM**3)
!  -508.935943   93.550773 -144.420147 -245.282919
!
!
 $contrl maxit=200 scftyp=rhf runtyp=energy $end
 $contrl QMTTOL=1.0E-06 itol=30 icut=11 ispher=1 $end
 *** $contrl molplt=.t. exetyp=check $end
 $system mwords=25 $end
 !
 $elmom iemom=3 $end
 $basis gbasis=accd $end
 $scf dirscf=.true. damp=.t. fdiff=.f. conv=2.5d-07 $end
 !
 $data
 compound #7, c1
 C1
 C01         6.0   4.2795548260  -0.0996282034  -0.3176113927
 C02         6.0   3.3053773337  -0.7915071940   0.2830633422
 C03         6.0   5.7080252121  -0.3409278194  -0.2420183796
 C04         6.0   1.8794163455  -0.5265761932   0.1879935530
 H05         1.0   4.0053530622   0.7436906664  -0.9453858182
 H06         1.0   3.5657472864  -1.6433180438   0.9031858496
 C07         6.0   6.2784846833  -1.3620429349   0.5201782519
 C08         6.0   0.9919228545  -1.3943133531   0.8269120825
 C09         6.0   7.6423711309  -1.5494765771   0.5562085337
 C10         6.0  -0.3691164891  -1.1802269007   0.7588879167
 C11         6.0   8.4825763440  -0.7148112334  -0.1738999488
 C12         6.0  -0.9028911053  -0.1109282751   0.0649697691
 C13         6.0   7.9396244912   0.3077104668  -0.9379912586
 C14         6.0  -0.0156336041   0.7480266690  -0.5639860315
 C15         6.0   6.5735892608   0.4836749070  -0.9647148537
 C16         6.0   1.3465841413   0.5596811390  -0.5122424955
 H17         1.0   5.6479410183  -2.0244002511   1.0990261435
 H18         1.0   1.3605931521  -2.2439512174   1.3866644106
 H19         1.0   8.0671817588  -2.3477670724   1.1546288181
 O20         8.0  -1.1972707713  -2.0295330598   1.4589029968
 O21         8.0   9.8242648410  -0.8555153229  -0.1727233514
 H23         1.0  10.0763751493  -1.5904012297   0.3879019046
 H24         1.0  -1.9714983442   0.0515162013   0.0159991001
 H25         1.0   8.6027692376   0.9502924068  -1.5004928414
 O26         8.0  -0.4985744947   1.7955292917  -1.3178840226
 H27         1.0   6.1558834720   1.2841978803  -1.5637663694
 H29         1.0   1.9805017977   1.2696962719  -1.0247154555
 C43         6.0  -2.0533737831  -2.8401674850   0.7959128398
 C44         6.0  -1.9602732874  -3.1150446694  -0.5621143151
 C45         6.0  -2.8599622245  -3.9853859061  -1.1429034035
 C46         6.0  -3.8575975596  -4.5947456020  -0.3923438257
 C47         6.0  -3.9389631363  -4.3139731067   0.9804290126
 C48         6.0  -3.0396269252  -3.4401734586   1.5656378785
 H49         1.0  -1.1855758507  -2.6568725990  -1.1605317581
 H50         1.0  -2.7912327924  -4.2060583302  -2.1990254766
 C51         6.0  -4.7707412814  -5.4890642601  -1.0204918657
 N52         7.0  -5.4950496544  -6.2077910197  -1.5503262529
 C53         6.0  -4.9449185526  -4.9187750290   1.7925466750
 N54         7.0  -5.7456992177  -5.3946826425   2.4653255552
 H55         1.0  -3.0955234442  -3.2191344095   2.6220114595
 C56         6.0  -1.1350636065   2.8249351023  -0.7139033320
 C57         6.0  -1.0807247392   3.0702407150   0.6518980098
 C58         6.0  -1.7353887490   4.1678614726   1.1722587880
 C59         6.0  -2.4469497049   5.0355014598   0.3532135721
 C60         6.0  -2.4899636055   4.7815543370  -1.0265321775
 C61         6.0  -1.8364686529   3.6804634291  -1.5513411918
 H62         1.0  -0.5247003233   2.4110622529   1.3034802282
 H63         1.0  -1.6948299679   4.3660229633   2.2342889749
 C64         6.0  -3.1117311644   6.1600764719   0.9202605905
 N65         7.0  -3.6391551586   7.0611429359   1.4017273007
 C66         6.0  -3.2052463760   5.6471032443  -1.9077158107
 N67         7.0  -3.7740364358   6.3306257000  -2.6354813930
 H68         1.0  -1.8649492584   3.4782472751  -2.6125825734
 $end
! TRAVIS-CI LARGE
! TRAVIS-CI LONG 
! TRAVIS-CI SKIP

