!          ---------------------
!          ELECTROSTATIC MOMENTS
!          ---------------------
!
! POINT   1           X           Y           Z (BOHR)    CHARGE
!                 0.000000   -0.000000   -0.000000       -0.00 (A.U.)
!         DX          DY          DZ         /D/  (DEBYE)
!     0.957419   -0.004757   -0.166504    0.971801
!        QXX         QYY         QZZ         QXY         QXZ         QYZ
!     9.894916   -6.482084   -3.412833    8.845224  -10.623701  -15.287119
!        OXXX        OXXY        OXXZ        OXYY        OYYY        OYYZ
!    13.029996  160.469661 -180.563913  -13.692993 -103.744125   62.015570
!        OXZZ        OYZZ        OZZZ        OXYZ  (X10**34 ESU-CM**3)
!     0.662997  -56.725536  118.548343   -8.282243
!
 $contrl maxit=200 scftyp=rhf runtyp=energy $end
 $contrl QMTTOL=1.0E-06 icut=11 itol=30 ispher=1 $end
 $contrl nzvar=1 $end
 *** $contrl molplt=.t. exetyp=check $end
 ! 
 $system  mwords=25 $end
 !
 $elmom iemom=3 $end
 !
 $basis gbasis=acct $end
 *** $guess guess=moread $end
 $scf dirscf=.true. damp=.t. fdiff=.f. conv=2.5d-07 $end
 !
 $statpt NSTEP=200 OPTTOL=0.000005 hssend=.f. $end
 $zmat auto=.t. dlc=.t. $end
 !
 $data
 reactant #1; trans
 C1
 C01         6.0   0.7022396263   0.3198653508  -0.3424367902
 C02         6.0  -0.2480768667  -0.3136494358   0.3501779700
 C03         6.0   2.1411989773   0.1844344773  -0.1863619812
 C04         6.0  -1.6880785623  -0.1676460774   0.1835931982
 H05         1.0   0.4002971961   1.0164064338  -1.1193453859
 H06         1.0   0.0467328762  -1.0214097730   1.1194034375
 C07         6.0   2.9856692468   0.8922877765  -1.0393531212
 C08         6.0  -2.5246467836  -0.9627309216   0.9683744795
 C09         6.0   4.3610414528   0.8017592190  -0.9413060090
 C10         6.0  -3.9010236985  -0.8668836299   0.8482515707
 C11         6.0   4.9300427950  -0.0091269166   0.0275668935
 C12         6.0  -4.4687788485   0.0200262433  -0.0508005693
 C13         6.0   4.1096030624  -0.7237912103   0.8930901652
 C14         6.0  -3.6355318783   0.8111459404  -0.8283983339
 C15         6.0   2.7419293243  -0.6244903190   0.7834568228
 C16         6.0  -2.2590408541   0.7255516392  -0.7186007049
 H17         1.0   2.5496595735   1.5293580677  -1.7996878952
 H18         1.0  -2.0922868438  -1.6621729704   1.6761648336
 H19         1.0   4.9960956877   1.3626546417  -1.6181955865
 O20         8.0  -4.7456676502  -1.6218311135   1.5906232863
 O21         8.0   6.2683198725  -0.1421379405   0.1782273722
 H22         1.0  -4.2370773831  -2.1908225426   2.1692092153
 H23         1.0   6.7205770194   0.3971092288  -0.4714199001
 H24         1.0  -5.5472410183   0.0823637269  -0.1305649012
 H25         1.0   4.5684965455  -1.3501552324   1.6461055683
 O26         8.0  -4.1336965846   1.6981820330  -1.7225974391
 H27         1.0   2.1250643893  -1.1882140673   1.4713896238
 H28         1.0  -5.0905934030   1.6673105138  -1.7047278503
 H29         1.0  -1.6566465567   1.3687166131  -1.3443606442
 $end
! TRAVIS-CI LARGE
! TRAVIS-CI LONG
! TRAVIS-CI SKIP

