!  Double/quadruple precision comparison using the bismuth dimer
!  using the 3rd order DKH approximation
!
!  Double precision (modeqr=3):
!  FINAL RHF ENERGY IS   -43075.4017414013 AFTER  10 ITERATIONS
!
!  Quadruple precision (modeqr=11):
!  FINAL RHF ENERGY IS   -43075.4016049499 AFTER  10 ITERATIONS
!
!$scf dirscf=.t. $end
 $contrl scftyp=rhf runtyp=energy relwfn=dk ispher=1 $end
 $system mwords=40 $end
! $relwfn norder=3 modeqr=3 $end
 $relwfn norder=3 modeqr=11 $end
 $guess  guess=huckel $end
 $basis  basnam(1)=BiBas,BiBas $end
 $data
relativity test on the bismuth dimer
DNH 8

Bi 83.0 0.0 0.0 1.3298
 $end

The basis sets below are general contractions of 3rd order DKH
atomic calculations, using GTOs from
        T.Tsuchiya, M.Abe, T.Nakajima, K.Hirao
        J.Chem.Phys. 115, 4463-4472(2001).
and the utility program dk3.f provided with GAMESS to prepare these.

 $BiBas
  s  27
     1 2.4062858E+11  5.18229763E-06
     2 2.2809639E+10  2.09368383E-05
     3 3.4462821E+09  6.40519317E-05
     4 6.7450223E+08  1.69730393E-04
     5 1.5569479E+08  4.08173737E-04
     6 4.0651160E+07  9.16622012E-04
     7 1.1560254E+07  1.97319149E-03
     8 3.5127552E+06  4.09462136E-03
     9 1.1280140E+06  8.26466445E-03
    10 3.8096930E+05  1.62363264E-02
    11 1.3537905E+05  3.11600527E-02
    12 5.0527834E+04  5.87189619E-02
    13 1.9697323E+04  1.08769772E-01
    14 7.9790262E+03  1.91671139E-01
    15 3.3497459E+03  2.95526764E-01
    16 1.4574575E+03  3.21795520E-01
    17 6.5841402E+02  1.70679943E-01
    18 2.8409184E+02  2.12339449E-02
    19 1.3178503E+02 -1.44433668E-03
    20 5.4629074E+01  6.57147209E-04
    21 2.8745817E+01 -4.48126707E-04
    22 1.2110242E+01  2.29568955E-04
    23 6.3011136E+00 -1.19360251E-04
    24 2.1494104E+00  4.68682330E-05
    25 1.0677106E+00 -2.38130891E-05
    26 2.6714109E-01  5.92368822E-06
    27 1.0206999E-01 -2.21422669E-06
  s  27
     1 2.4062858E+11 -2.07554448E-06
     2 2.2809639E+10 -8.35323619E-06
     3 3.4462821E+09 -2.54891496E-05
     4 6.7450223E+08 -6.74241990E-05
     5 1.5569479E+08 -1.61923141E-04
     6 4.0651160E+07 -3.63493181E-04
     7 1.1560254E+07 -7.82444647E-04
     8 3.5127552E+06 -1.62746307E-03
     9 1.1280140E+06 -3.29452342E-03
    10 3.8096930E+05 -6.53042556E-03
    11 1.3537905E+05 -1.26676562E-02
    12 5.0527834E+04 -2.44858764E-02
    13 1.9697323E+04 -4.68540171E-02
    14 7.9790262E+03 -8.86637347E-02
    15 3.3497459E+03 -1.51118894E-01
    16 1.4574575E+03 -1.97116975E-01
    17 6.5841402E+02 -4.09299369E-02
    18 2.8409184E+02  4.52207571E-01
    19 1.3178503E+02  5.76797058E-01
    20 5.4629074E+01  1.24709783E-01
    21 2.8745817E+01 -2.10093492E-02
    22 1.2110242E+01  8.61639547E-03
    23 6.3011136E+00 -4.44562618E-03
    24 2.1494104E+00  1.66140739E-03
    25 1.0677106E+00 -8.25438459E-04
    26 2.6714109E-01  2.06425152E-04
    27 1.0206999E-01 -7.56464008E-05
  p  23
     1 5.8730496E+07  1.67402507E-05
     2 8.3144760E+06  5.49935775E-05
     3 1.6976188E+06  1.59137665E-04
     4 4.2605330E+05  4.33240780E-04
     5 1.2403012E+05  1.15850882E-03
     6 4.0689092E+04  3.09518317E-03
     7 1.4811776E+04  8.30776117E-03
     8 5.8931265E+03  2.22472534E-02
     9 2.5262925E+03  5.76899358E-02
    10 1.1517227E+03  1.35950959E-01
    11 5.5107472E+02  2.63111211E-01
    12 2.7424988E+02  3.57704060E-01
    13 1.4046722E+02  2.70886413E-01
    14 7.2494510E+01  8.05939225E-02
    15 3.8653022E+01  3.45729152E-03
    16 2.0583442E+01  9.69342167E-04
    17 1.0692111E+01 -6.17168668E-04
    18 5.5586880E+00  2.43575496E-04
    19 2.5810616E+00 -1.17940669E-04
    20 1.2386791E+00  6.52706935E-05
    21 5.5495678E-01 -2.36761908E-05
    22 1.9599244E-01  7.76591326E-06
    23 6.9345825E-02 -2.31598062E-06
  s  27
     1 2.4062858E+11  1.00219782E-06
     2 2.2809639E+10  4.03103056E-06
     3 3.4462821E+09  1.22959923E-05
     4 6.7450223E+08  3.25149602E-05
     5 1.5569479E+08  7.80790469E-05
     6 4.0651160E+07  1.75237128E-04
     7 1.1560254E+07  3.77329781E-04
     8 3.5127552E+06  7.84760933E-04
     9 1.1280140E+06  1.59067467E-03
    10 3.8096930E+05  3.15394748E-03
    11 1.3537905E+05  6.14031338E-03
    12 5.0527834E+04  1.18882653E-02
    13 1.9697323E+04  2.29632768E-02
    14 7.9790262E+03  4.37682693E-02
    15 3.3497459E+03  7.66161044E-02
    16 1.4574575E+03  1.02076551E-01
    17 6.5841402E+02  1.45830817E-02
    18 2.8409184E+02 -3.86226363E-01
    19 1.3178503E+02 -6.26463443E-01
    20 5.4629074E+01  3.62493111E-01
    21 2.8745817E+01  8.68017483E-01
    22 1.2110242E+01  1.55001492E-01
    23 6.3011136E+00 -1.95362150E-02
    24 2.1494104E+00  5.81571570E-03
    25 1.0677106E+00 -2.80808002E-03
    26 2.6714109E-01  6.52176133E-04
    27 1.0206999E-01 -2.42641640E-04
  p  23
     1 5.8730496E+07 -8.67702228E-06
     2 8.3144760E+06 -2.85280446E-05
     3 1.6976188E+06 -8.26686326E-05
     4 4.2605330E+05 -2.25586066E-04
     5 1.2403012E+05 -6.05196463E-04
     6 4.0689092E+04 -1.62550440E-03
     7 1.4811776E+04 -4.39390682E-03
     8 5.8931265E+03 -1.19115264E-02
     9 2.5262925E+03 -3.14792331E-02
    10 1.1517227E+03 -7.66639906E-02
    11 5.5107472E+02 -1.55149437E-01
    12 2.7424988E+02 -2.17926907E-01
    13 1.4046722E+02 -8.98010731E-02
    14 7.2494510E+01  3.16082267E-01
    15 3.8653022E+01  5.41420491E-01
    16 2.0583442E+01  2.53815987E-01
    17 1.0692111E+01  2.86738539E-02
    18 5.5586880E+00  1.04822440E-03
    19 2.5810616E+00 -1.73524074E-04
    20 1.2386791E+00  1.40028565E-05
    21 5.5495678E-01 -3.53923447E-05
    22 1.9599244E-01  9.82084763E-06
    23 6.9345825E-02 -2.73624962E-06
  d  15
     1 1.6038922E+04  2.05155594E-04
     2 4.1627671E+03  1.42778218E-03
     3 1.4932680E+03  7.37871965E-03
     4 6.3617893E+02  2.94442535E-02
     5 3.0019669E+02  9.11349096E-02
     6 1.5071473E+02  2.13784165E-01
     7 7.8150152E+01  3.50013364E-01
     8 4.1403834E+01  3.42636764E-01
     9 2.1913244E+01  1.57320743E-01
    10 1.1392226E+01  2.42157006E-02
    11 5.8708730E+00  1.18950056E-03
    12 2.9079721E+00  5.27146083E-05
    13 1.3928501E+00  2.97931335E-05
    14 6.3220087E-01 -1.42283264E-05
    15 2.5747463E-01  4.93934806E-06
  s  27
     1 2.4062858E+11  5.07315000E-07
     2 2.2809639E+10  2.04025055E-06
     3 3.4462821E+09  6.22277898E-06
     4 6.7450223E+08  1.64545445E-05
     5 1.5569479E+08  3.95093957E-05
     6 4.0651160E+07  8.86777337E-05
     7 1.1560254E+07  1.90927045E-04
     8 3.5127552E+06  3.97189439E-04
     9 1.1280140E+06  8.04979126E-04
    10 3.8096930E+05  1.59730887E-03
    11 1.3537905E+05  3.10930593E-03
    12 5.0527834E+04  6.03145203E-03
    13 1.9697323E+04  1.16524820E-02
    14 7.9790262E+03  2.23160346E-02
    15 3.3497459E+03  3.91539636E-02
    16 1.4574575E+03  5.28548030E-02
    17 6.5841402E+02  5.90614054E-03
    18 2.8409184E+02 -2.23518407E-01
    19 1.3178503E+02 -4.01182637E-01
    20 5.4629074E+01  3.85449934E-01
    21 2.8745817E+01  1.08714435E+00
    22 1.2110242E+01 -4.42316421E-01
    23 6.3011136E+00 -1.00079886E+00
    24 2.1494104E+00 -9.50867816E-02
    25 1.0677106E+00  1.99718151E-02
    26 2.6714109E-01 -3.84611956E-03
    27 1.0206999E-01  1.32121011E-03
  p  23
     1 5.8730496E+07  4.37741237E-06
     2 8.3144760E+06  1.43883341E-05
     3 1.6976188E+06  4.17303323E-05
     4 4.2605330E+05  1.13875039E-04
     5 1.2403012E+05  3.05878034E-04
     6 4.0689092E+04  8.22348144E-04
     7 1.4811776E+04  2.22692033E-03
     8 5.8931265E+03  6.05537576E-03
     9 2.5262925E+03  1.60738897E-02
    10 1.1517227E+03  3.94789960E-02
    11 5.5107472E+02  8.08090836E-02
    12 2.7424988E+02  1.14535669E-01
    13 1.4046722E+02  3.23402311E-02
    14 7.2494510E+01 -2.53659904E-01
    15 3.8653022E+01 -4.63732419E-01
    16 2.0583442E+01  1.44121367E-03
    17 1.0692111E+01  6.33757353E-01
    18 5.5586880E+00  4.70437976E-01
    19 2.5810616E+00  6.49286493E-02
    20 1.2386791E+00 -2.92300652E-03
    21 5.5495678E-01  1.37402030E-03
    22 1.9599244E-01 -3.98918371E-04
    23 6.9345825E-02  1.09724147E-04
  d  15
     1 1.6038922E+04 -1.09117275E-04
     2 4.1627671E+03 -7.60373358E-04
     3 1.4932680E+03 -3.96157872E-03
     4 6.3617893E+02 -1.59167556E-02
     5 3.0019669E+02 -5.02075063E-02
     6 1.5071473E+02 -1.19073990E-01
     7 7.8150152E+01 -1.90940584E-01
     8 4.1403834E+01 -1.32475125E-01
     9 2.1913244E+01  1.81115129E-01
    10 1.1392226E+01  4.78912537E-01
    11 5.8708730E+00  3.85802474E-01
    12 2.9079721E+00  1.01501953E-01
    13 1.3928501E+00  4.28000616E-03
    14 6.3220087E-01  6.32004907E-04
    15 2.5747463E-01 -1.89446951E-04
  s  27
     1 2.4062858E+11 -2.30339534E-07
     2 2.2809639E+10 -9.26315784E-07
     3 3.4462821E+09 -2.82520086E-06
     4 6.7450223E+08 -7.47041471E-06
     5 1.5569479E+08 -1.79371240E-05
     6 4.0651160E+07 -4.02594523E-05
     7 1.1560254E+07 -8.66798667E-05
     8 3.5127552E+06 -1.80328349E-04
     9 1.1280140E+06 -3.65474753E-04
    10 3.8096930E+05 -7.25291923E-04
    11 1.3537905E+05 -1.41195171E-03
    12 5.0527834E+04 -2.73978956E-03
    13 1.9697323E+04 -5.29458938E-03
    14 7.9790262E+03 -1.01488321E-02
    15 3.3497459E+03 -1.78246929E-02
    16 1.4574575E+03 -2.41235292E-02
    17 6.5841402E+02 -2.52738266E-03
    18 2.8409184E+02  1.05017748E-01
    19 1.3178503E+02  1.93602746E-01
    20 5.4629074E+01 -2.09761927E-01
    21 2.8745817E+01 -6.27618583E-01
    22 1.2110242E+01  3.98942047E-01
    23 6.3011136E+00  1.10941033E+00
    24 2.1494104E+00 -7.26210084E-01
    25 1.0677106E+00 -7.45267207E-01
    26 2.6714109E-01 -3.47060170E-02
    27 1.0206999E-01  6.29968657E-03
  f  10
     1 1.2931490E+03  2.55844067E-04
     2 4.4245050E+02  2.30025619E-03
     3 1.8992104E+02  1.27463744E-02
     4 9.1584137E+01  4.69483150E-02
     5 4.7062874E+01  1.22697139E-01
     6 2.5131198E+01  2.36857016E-01
     7 1.3357806E+01  3.32357207E-01
     8 6.9337984E+00  3.26770229E-01
     9 3.4247290E+00  1.91566397E-01
    10 1.5159795E+00  4.72213713E-02
  p  23
     1 5.8730496E+07 -1.86922903E-06
     2 8.3144760E+06 -6.14153640E-06
     3 1.6976188E+06 -1.78265070E-05
     4 4.2605330E+05 -4.85997252E-05
     5 1.2403012E+05 -1.30762701E-04
     6 4.0689092E+04 -3.50957284E-04
     7 1.4811776E+04 -9.53152498E-04
     8 5.8931265E+03 -2.58582120E-03
     9 2.5262925E+03 -6.89547037E-03
    10 1.1517227E+03 -1.68989524E-02
    11 5.5107472E+02 -3.48706362E-02
    12 2.7424988E+02 -4.90875348E-02
    13 1.4046722E+02 -1.30199687E-02
    14 7.2494510E+01  1.21887440E-01
    15 3.8653022E+01  2.19578176E-01
    16 2.0583442E+01 -2.83646812E-02
    17 1.0692111E+01 -4.54373051E-01
    18 5.5586880E+00 -3.25931090E-01
    19 2.5810616E+00  4.90744543E-01
    20 1.2386791E+00  6.26770246E-01
    21 5.5495678E-01  1.52838695E-01
    22 1.9599244E-01  3.40519191E-03
    23 6.9345825E-02  3.24378424E-04
  d  15
     1 1.6038922E+04  3.89992241E-05
     2 4.1627671E+03  2.71106549E-04
     3 1.4932680E+03  1.41899025E-03
     4 6.3617893E+02  5.69055409E-03
     5 3.0019669E+02  1.80797071E-02
     6 1.5071473E+02  4.27884418E-02
     7 7.8150152E+01  6.87868266E-02
     8 4.1403834E+01  4.15879757E-02
     9 2.1913244E+01 -8.94022051E-02
    10 1.1392226E+01 -2.19984950E-01
    11 5.8708730E+00 -1.35265975E-01
    12 2.9079721E+00  2.39775522E-01
    13 1.3928501E+00  4.96459070E-01
    14 6.3220087E-01  3.72596008E-01
    15 2.5747463E-01  1.00764053E-01
  s  27
     1 2.4062858E+11 -8.10345972E-08
     2 2.2809639E+10 -3.25880460E-07
     3 3.4462821E+09 -9.93906948E-07
     4 6.7450223E+08 -2.62809597E-06
     5 1.5569479E+08 -6.31023809E-06
     6 4.0651160E+07 -1.41633138E-05
     7 1.1560254E+07 -3.04935765E-05
     8 3.5127552E+06 -6.34406298E-05
     9 1.1280140E+06 -1.28571796E-04
    10 3.8096930E+05 -2.55174042E-04
    11 1.3537905E+05 -4.96720264E-04
    12 5.0527834E+04 -9.64032417E-04
    13 1.9697323E+04 -1.86273871E-03
    14 7.9790262E+03 -3.57206728E-03
    15 3.3497459E+03 -6.27271352E-03
    16 1.4574575E+03 -8.49896340E-03
    17 6.5841402E+02 -8.70066141E-04
    18 2.8409184E+02  3.71733567E-02
    19 1.3178503E+02  6.89765368E-02
    20 5.4629074E+01 -7.65626926E-02
    21 2.8745817E+01 -2.31427939E-01
    22 1.2110242E+01  1.58198409E-01
    23 6.3011136E+00  4.78891111E-01
    24 2.1494104E+00 -4.74239803E-01
    25 1.0677106E+00 -5.64104591E-01
    26 2.6714109E-01  7.42749410E-01
    27 1.0206999E-01  5.49676172E-01
  p  23
     1 5.8730496E+07  5.17438958E-07
     2 8.3144760E+06  1.69945938E-06
     3 1.6976188E+06  4.93643999E-06
     4 4.2605330E+05  1.34421065E-05
     5 1.2403012E+05  3.62360964E-05
     6 4.0689092E+04  9.70005739E-05
     7 1.4811776E+04  2.64381602E-04
     8 5.8931265E+03  7.14236632E-04
     9 2.5262925E+03  1.91463666E-03
    10 1.1517227E+03  4.66563751E-03
    11 5.5107472E+02  9.70574393E-03
    12 2.7424988E+02  1.34959716E-02
    13 1.4046722E+02  3.80611018E-03
    14 7.2494510E+01 -3.49203603E-02
    15 3.8653022E+01 -6.05608380E-02
    16 2.0583442E+01  6.96023062E-03
    17 1.0692111E+01  1.40890697E-01
    18 5.5586880E+00  8.97106326E-02
    19 2.5810616E+00 -1.80360222E-01
    20 1.2386791E+00 -2.90852270E-01
    21 5.5495678E-01  5.98257968E-02
    22 1.9599244E-01  6.30782077E-01
    23 6.9345825E-02  4.58598693E-01
   s  1
     1 1.0206999E-01  1.0
   p  1
     1 6.9345825E-02  1.0
   d  1 ; 1 0.185 1.0

 $end

