!  WATER IN WATER NONEQUILIBRIUM EXCITED STATE
!  MCSCF(2E,2O)/6-311(2+)G*/SS(V)PE/0.001
!                                                           AU          KCAL/MOL
!  EGAS = INTERNAL ENERGY OF SOLUTE IN GAS PHASE       -75.80375278

!  EINT = INTERNAL ENERGY OF SOLUTE IN SOLUTION        -75.79837026
!    DINT  = EINT-EGAS = SOLUTE  POLARIZATION ENERGY     0.00538252      3.37758
!    DGRXN = ERXNFLD/2 = SOLVENT POLARIZATION ENERGY    -0.01217666     -7.64097
!      [E(+SIGMA_SLOW : RHO         )/2]                -0.00990191     -6.21354
!      [E(-SIGMA_SLOW : RHO^0       )/2]                 0.01689093     10.59922
!      [E(+SIGMA_SLOW : SIGMA_FAST  )/2]                -0.00220917     -1.38627
!      [E(-SIGMA_SLOW : SIGMA^0_FAST)/2]                -0.00016626     -0.10433
!    DGX = SUM OF VERT EXC CROSS TERMS                   0.00461358      2.89507
!  SS(V)PE  DELTAG = DINT+DGRXN+DGX                     -0.00218055     -1.36832
!  SS(V)PE  GTOTAL = EINT+DGRXN+DGX                    -75.80593333
!
!  NOTE - SEPARATE ANALOGOUS RUNS ON THE RHF GROUND STATE GIVE
!  EGAS = -76.03730120 AU AND SS(V)PE GTOTAL = -76.05259149 AU
!  WHENCE BY SUBTRACTION THE VERTICAL EXCITATION ENERGY IS
!  6.35518 EV (GAS) AND 6.71191 EV (SS(V)PE)
!  FOR A SOLVATOCHROMIC SHIFT OF 0.35673 EV
!
 $contrl runtyp=energy scftyp=mcscf icharg=0 mult=1 coord=unique units=bohr $end
 $system mwords=12 $end
 $guess  guess=moread norb=33    $end
 $mcscf  cistep=guga  fullnr=.t. $end
 $drt    group=c2v stsym=b2 iexcit=1 nmcc=4 ndoc=0 naos=1 nbos=1 nval=0 $end
 $svp rhoiso=0.001 dielst=78.36   nptleb=1202
  ivert=1 irdrf=1 egas=-75.8037527791 $end
 $data
 h2o at exptl Plyler et al geom roh=0.9572 ahoh=104.52
cnv      2

 O           8.0     0.0000000000        0.0000000000       -0.1239073596
   N311    6
   L       1
     1              0.0845000000  1.00000000  1.00000000
   L       1
     1              0.0254518072  1.00000000  1.00000000
   D       1
     1              1.2920000000  1.00000000

 H           1.0    -1.4304287048        0.0000000000        0.9832496043
   N311    6

 $end
 - mc2e2o vecs obtained from mc2e2o gas run that started from rohf triplet -
--- OPTIMIZED MCSCF MO-S --- GENERATED AT Tue Jul 24 09:23:40 2018
 h2o at exptl Plyler et al geom roh=0.9572 ahoh=104.52                          
E(MCSCF)=      -75.8037527791, E(NUC)=        9.1949655205
 $VEC   
 1  1 5.51499169E-01 4.71543779E-01 0.00000000E+00 0.00000000E+00 1.42867398E-03
 1  2 5.82402745E-03 0.00000000E+00 0.00000000E+00-3.92013751E-04 7.34824094E-05
 1  3 0.00000000E+00 0.00000000E+00 3.34441875E-04 3.15874441E-04 0.00000000E+00
 1  4 0.00000000E+00-1.36459630E-04-3.54870993E-04 0.00000000E+00 0.00000000E+00
 1  5-5.34775498E-05-2.05407164E-04-5.60175693E-04-8.56123060E-05 0.00000000E+00
 1  6 0.00000000E+00 0.00000000E+00 1.82232832E-04-1.12834100E-04-1.48295988E-04
 1  7 1.82232832E-04-1.12834100E-04-1.48295988E-04
 2  1-1.18697082E-01-1.96992931E-01 0.00000000E+00 0.00000000E+00 4.03289542E-02
 2  2 5.81700612E-01 0.00000000E+00 0.00000000E+00 9.13449587E-02 4.59223868E-01
 2  3 0.00000000E+00 0.00000000E+00 5.41009130E-02-1.10491950E-01 0.00000000E+00
 2  4 0.00000000E+00-3.03061318E-02 2.78415751E-03 0.00000000E+00 0.00000000E+00
 2  5-7.76323652E-04 1.98287531E-02-1.09477693E-02 1.26170407E-02 0.00000000E+00
 2  6 0.00000000E+00 0.00000000E+00 9.10041537E-02 1.20790423E-02 3.71310967E-02
 2  7 9.10041537E-02 1.20790423E-02 3.71310967E-02
 3  1 0.00000000E+00 0.00000000E+00 2.48835328E-01 0.00000000E+00 0.00000000E+00
 3  2 0.00000000E+00 4.20438768E-01 0.00000000E+00 0.00000000E+00 0.00000000E+00
 3  3 2.68931859E-01 0.00000000E+00 0.00000000E+00 0.00000000E+00-2.41933476E-02
 3  4 0.00000000E+00 0.00000000E+00 0.00000000E+00 1.12608848E-02 0.00000000E+00
 3  5 0.00000000E+00 0.00000000E+00 0.00000000E+00 0.00000000E+00 0.00000000E+00
 3  6 4.25913057E-02 0.00000000E+00 1.43739059E-01 1.27301855E-01 2.87482970E-02
 3  7-1.43739059E-01-1.27301855E-01-2.87482970E-02
 4  1 3.54009237E-02 6.16928503E-02 0.00000000E+00 0.00000000E+00 2.78050079E-01
 4  2-1.99325888E-01 0.00000000E+00 0.00000000E+00 4.42708170E-01-1.80136202E-01
 4  3 0.00000000E+00 0.00000000E+00 3.54655464E-01-2.83852152E-02 0.00000000E+00
 4  4 0.00000000E+00-8.89245171E-03-7.17022659E-03 0.00000000E+00 0.00000000E+00
 4  5 8.92638284E-03 4.31390740E-04-1.47163653E-02 2.52046526E-02 0.00000000E+00
 4  6 0.00000000E+00 0.00000000E+00 8.38417016E-02 6.03201231E-02 2.54271803E-02
 4  7 8.38417016E-02 6.03201231E-02 2.54271803E-02
 5  1 0.00000000E+00 0.00000000E+00 0.00000000E+00 3.19110724E-01 0.00000000E+00
 5  2 0.00000000E+00 0.00000000E+00 5.08396500E-01 0.00000000E+00 0.00000000E+00
 5  3 0.00000000E+00 3.93334326E-01 0.00000000E+00 0.00000000E+00 0.00000000E+00
 5  4-2.04120845E-02 0.00000000E+00 0.00000000E+00 0.00000000E+00 1.14962930E-02
 5  5 0.00000000E+00 0.00000000E+00 0.00000000E+00 0.00000000E+00 0.00000000E+00
 5  6 0.00000000E+00 1.87544636E-02 0.00000000E+00 0.00000000E+00 0.00000000E+00
 5  7 0.00000000E+00 0.00000000E+00 0.00000000E+00
 6  1 2.68268091E-02 4.62759339E-02 0.00000000E+00 0.00000000E+00-6.04605584E-02
 6  2-1.38415149E-01 0.00000000E+00 0.00000000E+00-1.09312045E-01-4.81472753E-01
 6  3 0.00000000E+00 0.00000000E+00-1.84569081E-01-4.94926300E-01 0.00000000E+00
 6  4 0.00000000E+00-2.49869366E-02 7.19940984E-01 0.00000000E+00 0.00000000E+00
 6  5 2.16082054E-01-2.60244859E-03 1.09686433E-02-8.56911683E-03 0.00000000E+00
 6  6 0.00000000E+00 0.00000000E+00 2.82162866E-02 1.24944803E-01 4.80112951E-01
 6  7 2.82162866E-02 1.24944803E-01 4.80112951E-01
 7  1 0.00000000E+00 0.00000000E+00-4.81464530E-02 0.00000000E+00 0.00000000E+00
 7  2 0.00000000E+00-9.27358618E-02 0.00000000E+00 0.00000000E+00 0.00000000E+00
 7  3-7.64356309E-02 0.00000000E+00 0.00000000E+00 0.00000000E+00-2.75617140E-01
 7  4 0.00000000E+00 0.00000000E+00 0.00000000E+00 1.05132249E+00 0.00000000E+00
 7  5 0.00000000E+00 0.00000000E+00 0.00000000E+00 0.00000000E+00 0.00000000E+00
 7  6-4.98640264E-03 0.00000000E+00-8.32002470E-05 3.29784911E-02 2.54626819E-01
 7  7 8.32002470E-05-3.29784911E-02-2.54626819E-01
 8  1-5.31370167E-03-8.66433119E-03 0.00000000E+00 0.00000000E+00-2.88534965E-02
 8  2 3.92144284E-02 0.00000000E+00 0.00000000E+00-5.70180758E-02-2.31025063E-02
 8  3 0.00000000E+00 0.00000000E+00-6.45380883E-03 7.47763317E-02 0.00000000E+00
 8  4 0.00000000E+00-2.33058415E-01-5.79475778E-01 0.00000000E+00 0.00000000E+00
 8  5 1.01271013E+00 3.09807241E-03 3.72613572E-03 4.54827015E-04 0.00000000E+00
 8  6 0.00000000E+00 0.00000000E+00-2.24057771E-03-1.09313756E-02 1.26435410E-01
 8  7-2.24057771E-03-1.09313756E-02 1.26435410E-01
 9  1 0.00000000E+00 0.00000000E+00 0.00000000E+00-2.69071436E-02 0.00000000E+00
 9  2 0.00000000E+00 0.00000000E+00-5.55056345E-02 0.00000000E+00 0.00000000E+00
 9  3 0.00000000E+00-8.15152870E-03 0.00000000E+00 0.00000000E+00 0.00000000E+00
 9  4-1.69029159E-01 0.00000000E+00 0.00000000E+00 0.00000000E+00 1.10202155E+00
 9  5 0.00000000E+00 0.00000000E+00 0.00000000E+00 0.00000000E+00 0.00000000E+00
 9  6 0.00000000E+00-1.43485424E-03 0.00000000E+00 0.00000000E+00 0.00000000E+00
 9  7 0.00000000E+00 0.00000000E+00 0.00000000E+00
10  1 3.03056585E-02 5.61167911E-02 0.00000000E+00 0.00000000E+00-6.80720696E-02
10  2-1.39014171E-01 0.00000000E+00 0.00000000E+00-1.14149636E-01-8.37233482E-01
10  3 0.00000000E+00 0.00000000E+00-2.10225482E-01-6.81863445E-01 0.00000000E+00
10  4 0.00000000E+00-3.61887043E-01-1.41672161E+00 0.00000000E+00 0.00000000E+00
10  5-4.78330926E-01 1.97201425E-02 9.49715834E-03 8.41249810E-03 0.00000000E+00
10  6 0.00000000E+00 0.00000000E+00 6.39841147E-02 4.58744920E-02 1.55545398E+00
10  7 6.39841147E-02 4.58744920E-02 1.55545398E+00
11  1 0.00000000E+00 0.00000000E+00-1.26024134E-01 0.00000000E+00 0.00000000E+00
11  2 0.00000000E+00-1.89912816E-01 0.00000000E+00 0.00000000E+00 0.00000000E+00
11  3-4.50842423E-01 0.00000000E+00 0.00000000E+00 0.00000000E+00-1.02814777E+00
11  4 0.00000000E+00 0.00000000E+00 0.00000000E+00-5.39889206E-01 0.00000000E+00
11  5 0.00000000E+00 0.00000000E+00 0.00000000E+00 0.00000000E+00 0.00000000E+00
11  6 8.74365808E-03 0.00000000E+00 7.70296761E-02 8.69508025E-02 2.52247487E+00
11  7-7.70296761E-02-8.69508025E-02-2.52247487E+00
12  1 0.00000000E+00 0.00000000E+00-6.18889516E-02 0.00000000E+00 0.00000000E+00
12  2 0.00000000E+00-5.81598795E-02 0.00000000E+00 0.00000000E+00 0.00000000E+00
12  3-3.89118714E-01 0.00000000E+00 0.00000000E+00 0.00000000E+00 3.02089223E+00
12  4 0.00000000E+00 0.00000000E+00 0.00000000E+00-7.49439055E-01 0.00000000E+00
12  5 0.00000000E+00 0.00000000E+00 0.00000000E+00 0.00000000E+00 0.00000000E+00
12  6-2.56629428E-02 0.00000000E+00-3.36342077E-02 4.17840816E-02-2.14049145E+00
12  7 3.36342077E-02-4.17840816E-02 2.14049145E+00
13  1-8.40966485E-03-1.43122257E-02 0.00000000E+00 0.00000000E+00-6.91355589E-02
13  2 6.32640909E-02 0.00000000E+00 0.00000000E+00-6.64076044E-02-8.07740974E-02
13  3 0.00000000E+00 0.00000000E+00-3.81089145E-01 5.48113642E+00 0.00000000E+00
13  4 0.00000000E+00 3.29188484E+00 9.13853891E-02 0.00000000E+00 0.00000000E+00
13  5-7.35884781E-01-1.04160607E-02 1.83426841E-02-1.91275167E-03 0.00000000E+00
13  6 0.00000000E+00 0.00000000E+00-2.95118707E-02 7.13022412E-02-3.31982422E+00
13  7-2.95118707E-02 7.13022412E-02-3.31982422E+00
14  1 0.00000000E+00 0.00000000E+00 0.00000000E+00-9.85409488E-02 0.00000000E+00
14  2 0.00000000E+00 0.00000000E+00-9.73182447E-02 0.00000000E+00 0.00000000E+00
14  3 0.00000000E+00-5.18353212E-01 0.00000000E+00 0.00000000E+00 0.00000000E+00
14  4 1.68940172E+00 0.00000000E+00 0.00000000E+00 0.00000000E+00-8.63192980E-01
14  5 0.00000000E+00 0.00000000E+00 0.00000000E+00 0.00000000E+00 0.00000000E+00
14  6 0.00000000E+00-4.09131206E-03 0.00000000E+00 0.00000000E+00 0.00000000E+00
14  7 0.00000000E+00 0.00000000E+00 0.00000000E+00
15  1 1.89768410E-02 3.92739102E-02 0.00000000E+00 0.00000000E+00 6.52513809E-02
15  2-6.51752741E-02 0.00000000E+00 0.00000000E+00 5.89555335E-02-8.81694103E-01
15  3 0.00000000E+00 0.00000000E+00 3.41403226E-01 7.51848728E+00 0.00000000E+00
15  4 0.00000000E+00 1.29519531E+00-6.35299350E-01 0.00000000E+00 0.00000000E+00
15  5 3.44811311E-01 8.48634086E-03 3.41501211E-02 2.72100237E-02 0.00000000E+00
15  6 0.00000000E+00 0.00000000E+00-2.63302714E-02 7.37073822E-03-3.49578266E+00
15  7-2.63302714E-02 7.37073822E-03-3.49578266E+00
16  1 0.00000000E+00 0.00000000E+00 1.41278273E-01 0.00000000E+00 0.00000000E+00
16  2 0.00000000E+00 2.46628710E-01 0.00000000E+00 0.00000000E+00 0.00000000E+00
16  3 1.00961107E+00 0.00000000E+00 0.00000000E+00 0.00000000E+00-1.79485949E+00
16  4 0.00000000E+00 0.00000000E+00 0.00000000E+00-1.42055954E-01 0.00000000E+00
16  5 0.00000000E+00 0.00000000E+00 0.00000000E+00 0.00000000E+00 0.00000000E+00
16  6-3.30277840E-02 0.00000000E+00-1.08705669E-01-1.61021494E+00 3.22213070E+00
16  7 1.08705669E-01 1.61021494E+00-3.22213070E+00
17  1 3.67032203E-02 6.31659216E-02 0.00000000E+00 0.00000000E+00-1.07708234E-01
17  2-2.11646870E-01 0.00000000E+00 0.00000000E+00-2.06561915E-01-1.09062147E+00
17  3 0.00000000E+00 0.00000000E+00-8.33541160E-01 4.41213893E+00 0.00000000E+00
17  4 0.00000000E+00 1.49707072E+00 5.10294995E-01 0.00000000E+00 0.00000000E+00
17  5 1.41037526E-01 2.32737430E-02-3.02254623E-02-1.60135179E-02 0.00000000E+00
17  6 0.00000000E+00 0.00000000E+00 9.88868686E-02 1.86908530E+00-3.59398276E+00
17  7 9.88868686E-02 1.86908530E+00-3.59398276E+00
18  1 0.00000000E+00 0.00000000E+00-2.15517982E-01 0.00000000E+00 0.00000000E+00
18  2 0.00000000E+00-8.64542016E-01 0.00000000E+00 0.00000000E+00 0.00000000E+00
18  3 2.25888617E+00 0.00000000E+00 0.00000000E+00 0.00000000E+00-1.61680808E+00
18  4 0.00000000E+00 0.00000000E+00 0.00000000E+00 3.52199644E-01 0.00000000E+00
18  5 0.00000000E+00 0.00000000E+00 0.00000000E+00 0.00000000E+00 0.00000000E+00
18  6-5.65973218E-02 0.00000000E+00-5.80023727E-02-5.53009021E-01 7.46401107E-01
18  7 5.80023727E-02 5.53009021E-01-7.46401107E-01
19  1 3.10157025E-03-3.08973674E-03 0.00000000E+00 0.00000000E+00-2.23400751E-01
19  2-1.76385052E-01 0.00000000E+00 0.00000000E+00-8.54357828E-01 1.08249957E+00
19  3 0.00000000E+00 0.00000000E+00 2.26202080E+00-1.72550409E+00 0.00000000E+00
19  4 0.00000000E+00-1.67624933E+00-3.11316326E-02 0.00000000E+00 0.00000000E+00
19  5 3.45274014E-01-7.49120795E-02-7.89766826E-03-4.66414782E-02 0.00000000E+00
19  6 0.00000000E+00 0.00000000E+00-4.20872682E-02-7.75979624E-01 1.11679319E+00
19  7-4.20872682E-02-7.75979624E-01 1.11679319E+00
20  1 0.00000000E+00 0.00000000E+00 0.00000000E+00-2.30625565E-01 0.00000000E+00
20  2 0.00000000E+00 0.00000000E+00-8.56611115E-01 0.00000000E+00 0.00000000E+00
20  3 0.00000000E+00 1.81244718E+00 0.00000000E+00 0.00000000E+00 0.00000000E+00
20  4-1.15162314E+00 0.00000000E+00 0.00000000E+00 0.00000000E+00 3.62531325E-01
20  5 0.00000000E+00 0.00000000E+00 0.00000000E+00 0.00000000E+00 0.00000000E+00
20  6 0.00000000E+00-2.62045387E-03 0.00000000E+00 0.00000000E+00 0.00000000E+00
20  7 0.00000000E+00 0.00000000E+00 0.00000000E+00
21  1-9.85253154E-02-1.26453089E-01 0.00000000E+00 0.00000000E+00-3.57487401E-02
21  2 1.56337420E+00 0.00000000E+00 0.00000000E+00-8.81142269E-02-3.93171095E+00
21  3 0.00000000E+00 0.00000000E+00-3.18630495E-01 4.05958891E+00 0.00000000E+00
21  4 0.00000000E+00 6.35963743E-01-4.64268401E-01 0.00000000E+00 0.00000000E+00
21  5 4.31243649E-02 2.90438539E-01 2.01479901E-01 2.44047736E-01 0.00000000E+00
21  6 0.00000000E+00 0.00000000E+00 6.05256680E-02 8.04447097E-01-1.49418001E+00
21  7 6.05256680E-02 8.04447097E-01-1.49418001E+00
22  1 0.00000000E+00 0.00000000E+00 1.80440059E-01 0.00000000E+00 0.00000000E+00
22  2 0.00000000E+00 2.53644630E-02 0.00000000E+00 0.00000000E+00 0.00000000E+00
22  3-8.35329720E-01 0.00000000E+00 0.00000000E+00 0.00000000E+00 7.83091663E-01
22  4 0.00000000E+00 0.00000000E+00 0.00000000E+00 1.19069224E-01 0.00000000E+00
22  5 0.00000000E+00 0.00000000E+00 0.00000000E+00 0.00000000E+00 0.00000000E+00
22  6-4.23875567E-01 0.00000000E+00-9.19272810E-01 1.98264841E+00-1.82836259E+00
22  7 9.19272810E-01-1.98264841E+00 1.82836259E+00
23  1-2.65503652E-02-6.29089655E-02 0.00000000E+00 0.00000000E+00 1.39932821E-01
23  2 2.80464972E-01 0.00000000E+00 0.00000000E+00-4.06219210E-03-1.26210852E+00
23  3 0.00000000E+00 0.00000000E+00-6.55930394E-01 2.20632790E+00 0.00000000E+00
23  4 0.00000000E+00 6.48822172E-01 2.72552740E-01 0.00000000E+00 0.00000000E+00
23  5 1.01780817E-01-3.53374268E-01 2.64387035E-01-5.84821210E-02 0.00000000E+00
23  6 0.00000000E+00 0.00000000E+00-9.88696601E-01 2.11676549E+00-1.98267165E+00
23  7-9.88696601E-01 2.11676549E+00-1.98267165E+00
24  1-2.91097874E-05 5.01366471E-04 0.00000000E+00 0.00000000E+00-3.61912154E-02
24  2 1.20513228E-02 0.00000000E+00 0.00000000E+00 1.49876775E-02-2.31101997E-02
24  3 0.00000000E+00 0.00000000E+00-3.60215098E-02-1.83209679E-02 0.00000000E+00
24  4 0.00000000E+00 1.33183197E-02-5.93631904E-03 0.00000000E+00 0.00000000E+00
24  5-7.69252670E-03-6.11865273E-01-3.73614700E-01 9.90920694E-01 0.00000000E+00
24  6 0.00000000E+00 0.00000000E+00 4.78895613E-02-3.88350349E-02 3.20453042E-02
24  7 4.78895613E-02-3.88350349E-02 3.20453042E-02
25  1 0.00000000E+00 0.00000000E+00 0.00000000E+00 0.00000000E+00 0.00000000E+00
25  2 0.00000000E+00 0.00000000E+00 0.00000000E+00 0.00000000E+00 0.00000000E+00
25  3 0.00000000E+00 0.00000000E+00 0.00000000E+00 0.00000000E+00 0.00000000E+00
25  4 0.00000000E+00 0.00000000E+00 0.00000000E+00 0.00000000E+00 0.00000000E+00
25  5 0.00000000E+00 0.00000000E+00 0.00000000E+00 0.00000000E+00 1.00000000E+00
25  6 0.00000000E+00 0.00000000E+00 0.00000000E+00 0.00000000E+00 0.00000000E+00
25  7 0.00000000E+00 0.00000000E+00 0.00000000E+00
26  1 0.00000000E+00 0.00000000E+00 0.00000000E+00-2.53263109E-02 0.00000000E+00
26  2 0.00000000E+00 0.00000000E+00 9.47573768E-03 0.00000000E+00 0.00000000E+00
26  3 0.00000000E+00-1.77064731E-02 0.00000000E+00 0.00000000E+00 0.00000000E+00
26  4 1.03631628E-02 0.00000000E+00 0.00000000E+00 0.00000000E+00-3.15990514E-03
26  5 0.00000000E+00 0.00000000E+00 0.00000000E+00 0.00000000E+00 0.00000000E+00
26  6 0.00000000E+00 9.99709747E-01 0.00000000E+00 0.00000000E+00 0.00000000E+00
26  7 0.00000000E+00 0.00000000E+00 0.00000000E+00
27  1 1.32975222E-03 1.36430246E-02 0.00000000E+00 0.00000000E+00-7.68657739E-02
27  2 1.48723753E-01 0.00000000E+00 0.00000000E+00 1.02885760E-01-5.42345514E-01
27  3 0.00000000E+00 0.00000000E+00-3.61447613E-01 2.78633795E-02 0.00000000E+00
27  4 0.00000000E+00 1.02598961E-01-8.00048357E-02 0.00000000E+00 0.00000000E+00
27  5-5.44034410E-02-7.14421186E-01 9.74000248E-01-9.31152467E-02 0.00000000E+00
27  6 0.00000000E+00 0.00000000E+00 5.46680325E-01-1.99583903E-01 1.63741339E-01
27  7 5.46680325E-01-1.99583903E-01 1.63741339E-01
28  1 0.00000000E+00 0.00000000E+00 1.61820461E-01 0.00000000E+00 0.00000000E+00
28  2 0.00000000E+00-2.04011477E-01 0.00000000E+00 0.00000000E+00 0.00000000E+00
28  3 4.62063526E-01 0.00000000E+00 0.00000000E+00 0.00000000E+00-1.66490865E-01
28  4 0.00000000E+00 0.00000000E+00 0.00000000E+00 9.53026378E-02 0.00000000E+00
28  5 0.00000000E+00 0.00000000E+00 0.00000000E+00 0.00000000E+00 0.00000000E+00
28  6 1.00379759E+00 0.00000000E+00-6.98319970E-01 4.12278814E-01-2.56489414E-01
28  7 6.98319970E-01-4.12278814E-01 2.56489414E-01
29  1 0.00000000E+00 0.00000000E+00 0.00000000E+00-1.28348884E+00 0.00000000E+00
29  2 0.00000000E+00 0.00000000E+00 1.52506156E+00 0.00000000E+00 0.00000000E+00
29  3 0.00000000E+00-9.08259573E-01 0.00000000E+00 0.00000000E+00 0.00000000E+00
29  4 4.43953357E-01 0.00000000E+00 0.00000000E+00 0.00000000E+00-1.36364793E-01
29  5 0.00000000E+00 0.00000000E+00 0.00000000E+00 0.00000000E+00 0.00000000E+00
29  6 0.00000000E+00-1.42487380E-02 0.00000000E+00 0.00000000E+00 0.00000000E+00
29  7 0.00000000E+00 0.00000000E+00 0.00000000E+00
30  1-4.97654744E-03-1.85044421E-02 0.00000000E+00 0.00000000E+00-1.28153365E+00
30  2 6.97022238E-02 0.00000000E+00 0.00000000E+00 1.54499593E+00-2.18277673E-01
30  3 0.00000000E+00 0.00000000E+00-1.05448936E+00 4.35593572E-01 0.00000000E+00
30  4 0.00000000E+00 5.81449341E-01 6.67242196E-02 0.00000000E+00 0.00000000E+00
30  5-1.14697286E-01 2.56706892E-03-5.45604823E-02-4.45050175E-02 0.00000000E+00
30  6 0.00000000E+00 0.00000000E+00-2.35091995E-01 4.48462417E-01-4.14178013E-01
30  7-2.35091995E-01 4.48462417E-01-4.14178013E-01
31  1 0.00000000E+00 0.00000000E+00-1.27755676E+00 0.00000000E+00 0.00000000E+00
31  2 0.00000000E+00 1.54414333E+00 0.00000000E+00 0.00000000E+00 0.00000000E+00
31  3-1.07283584E+00 0.00000000E+00 0.00000000E+00 0.00000000E+00 6.25653872E-01
31  4 0.00000000E+00 0.00000000E+00 0.00000000E+00-9.47710299E-02 0.00000000E+00
31  5 0.00000000E+00 0.00000000E+00 0.00000000E+00 0.00000000E+00 0.00000000E+00
31  6 1.01124423E-01 0.00000000E+00-3.50449168E-01 5.53304630E-01-4.93106446E-01
31  7 3.50449168E-01-5.53304630E-01 4.93106446E-01
32  1-1.80547568E-01-6.93788625E-01 0.00000000E+00 0.00000000E+00 3.85695059E-02
32  2 2.51163828E+00 0.00000000E+00 0.00000000E+00-6.48594114E-02 1.98140126E+00
32  3 0.00000000E+00 0.00000000E+00 2.48174452E-01-1.64688483E+00 0.00000000E+00
32  4 0.00000000E+00-3.05633542E-01 1.58558889E-01 0.00000000E+00 0.00000000E+00
32  5-9.77767684E-03-1.54803784E+00-1.57055982E+00-1.55977405E+00 0.00000000E+00
32  6 0.00000000E+00 0.00000000E+00 1.65074610E-01-4.93712482E-01 6.54275425E-01
32  7 1.65074610E-01-4.93712482E-01 6.54275425E-01
33  1-2.32094552E+00 2.70303523E+00 0.00000000E+00 0.00000000E+00-4.20570923E-03
33  2-1.07736099E+00 0.00000000E+00 0.00000000E+00 1.05959197E-02-5.11280852E-01
33  3 0.00000000E+00 0.00000000E+00-5.80950712E-02 4.31125028E-01 0.00000000E+00
33  4 0.00000000E+00 7.74044852E-02-4.76565303E-02 0.00000000E+00 0.00000000E+00
33  5 1.86313453E-03 5.46255964E-01 5.51970129E-01 5.48524520E-01 0.00000000E+00
33  6 0.00000000E+00 0.00000000E+00-2.85977417E-02 1.08815515E-01-1.60414886E-01
33  7-2.85977417E-02 1.08815515E-01-1.60414886E-01
 $END   
 - h2o_grnd_rhf_ssvpe rxn field -
 --- SVP REACTION FIELD FROM RHFCL  --- GENERATED AT Tue Jul 24 14:27:15 2018
 $SVPIRF
 SS(V)PE  REACTION FIELD, NCAV =   1202, NVLPL =    0
    1   3.5694239844  -0.0000000000   0.0975240332  -0.0001043658   0.0180822148
    1   0.9785683407   0.0000000000  -0.2059223219   0.0000000000   0.0013888218
    1   0.0010000000   2.7344153619   1.1039676246   0.0472439175   0.0484827016
    2  -3.5694239844  -0.0000000000   0.0975240332  -0.0001043658   0.0180822148
    2  -0.9785683407  -0.0000000000  -0.2059223219   0.0000000000   0.0013888218
    2   0.0010000000   2.7344153619   1.1039676246   0.0472439175   0.0484827016
    3   0.0000000000  -0.0000000000   3.4021818842  -0.0000633102   0.0151669939
    3   0.0000000000   0.0000000000   1.0000000000   0.0000000000   0.0013888218
    3   0.0010000000   2.5471860226   1.1040000000   0.0744586739   0.0346984252
    4   0.0000000000  -0.0000000000  -3.6132070033   0.0001014664   0.0191234156
    4  -0.0000000000  -0.0000000000  -1.0000000000   0.0000000000   0.0013888218
    4   0.0010000000   2.5618486418   1.1040000000  -0.0777888030  -0.0364286034
    5   0.0000000000  -3.5689221252   0.0975240332   0.0000705367   0.0177523945
    5  -0.0000000000  -0.9964688156   0.0839636794   0.0000000000   0.0013888218
    5   0.0009999999   2.4440740450   1.1039991397  -0.0335520282  -0.0232106568
    6   0.0000000000   3.5689221252   0.0975240332   0.0000705367   0.0177523945
    6  -0.0000000000   0.9964688156   0.0839636794   0.0000000000   0.0013888218
    6   0.0009999999   2.4440740450   1.1039991397  -0.0335520282  -0.0232106568
    7   0.0000000000  -2.3634777688   2.4610018020  -0.0000320335   0.1294160663
    7   0.0000000000  -0.6686461745   0.7435807241   0.0000000000   0.0115676366
    7   0.0010000000   2.5095287592   1.1039998650   0.0323096737   0.0092872212
    8   0.0000000000  -2.6246252187  -2.5271011855   0.0007412968   0.1593872790
    8   0.0000000000  -0.7171483052  -0.6969205897   0.0000000000   0.0115676366
    8   0.0010000000   2.4932991340   1.1039999994  -0.0687681866  -0.0350227269
    9   0.0000000000   2.3634777688   2.4610018020  -0.0000320335   0.1294160663
    9   0.0000000000   0.6686461745   0.7435807241   0.0000000000   0.0115676366
    9   0.0010000000   2.5095287592   1.1039998650   0.0323096737   0.0092872212
   10   0.0000000000   2.6246252187  -2.5271011855   0.0007412968   0.1593872790
   10   0.0000000000   0.7171483052  -0.6969205897   0.0000000000   0.0115676366
   10   0.0010000000   2.4932991340   1.1039999994  -0.0687681866  -0.0350227269
   11   2.4645755214  -2.4645755214   0.0975240332   0.0000845983   0.1405427855
   11   0.7175890562  -0.6964627968  -0.0023492602   0.0000000000   0.0115676366
   11   0.0010000000   2.5675157484   1.1039999992   0.0002490640   0.0009404270
   12  -2.4645755214  -2.4645755214   0.0975240332   0.0000845983   0.1405427855
   12  -0.7175890562  -0.6964627968  -0.0023492602   0.0000000000   0.0115676366
   12   0.0010000000   2.5675157484   1.1039999992   0.0002490640   0.0009404270
   13   2.4645755214   2.4645755214   0.0975240332   0.0000845983   0.1405427855
   13   0.7175890562   0.6964627968  -0.0023492602   0.0000000000   0.0115676366
   13   0.0010000000   2.5675157484   1.1039999992   0.0002490640   0.0009404270
   14  -2.4645755214   2.4645755214   0.0975240332   0.0000845983   0.1405427855
   14  -0.7175890562   0.6964627968  -0.0023492602   0.0000000000   0.0115676366
   14   0.0010000000   2.5675157484   1.1039999992   0.0002490640   0.0009404270
   15   2.6792622145  -0.0000000000   2.7767862477  -0.0012523012   0.1674172456
   15   0.6120891258   0.0000000000   0.7907887847   0.0000000000   0.0115676366
   15   0.0010000000   2.7060227302   1.1039955371   0.0923518598   0.0715544463
   16  -2.6792622145  -0.0000000000   2.7767862477  -0.0012523012   0.1674172456
   16  -0.6120891258  -0.0000000000   0.7907887847   0.0000000000   0.0115676366
   16   0.0010000000   2.7060227302   1.1039955371   0.0923518598   0.0715544463
   17   2.4768727153  -0.0000000000  -2.3793486822   0.0004411433   0.1430510862
   17   0.7898306178  -0.0000000000  -0.6133250322   0.0000000000   0.0115676366
   17   0.0010000000   2.6079436214   1.1039957542  -0.0472656150  -0.0221145403
   18  -2.4768727153  -0.0000000000  -2.3793486822   0.0004411433   0.1430510862
   18  -0.7898306178  -0.0000000000  -0.6133250322   0.0000000000   0.0115676366
   18   0.0010000000   2.6079436214   1.1039957542  -0.0472656150  -0.0221145403
   19   2.0401589298  -2.0401589298   2.1376829629  -0.0005502110   0.1453104385
   19   0.4511057019  -0.6848360193   0.5722790162   0.0000000000   0.0114770671
   19   0.0009999999   2.5892207506   1.1039867654   0.0542977150   0.0384854500
   20  -2.0401589298  -2.0401589298   2.1376829629  -0.0005502110   0.1453104385
   20  -0.4511057019  -0.6848360193   0.5722790162   0.0000000000   0.0114770671
   20   0.0009999999   2.5892207506   1.1039867654   0.0542977150   0.0384854500
   21   2.0656348376  -2.0656348376  -1.9681108044   0.0005343096   0.1478278714
   21   0.6640400688  -0.5364584765  -0.5208292331   0.0000000000   0.0114770671
   21   0.0010000000   2.5316439510   1.1039973439  -0.0496735295  -0.0259041299
   22  -2.0656348376  -2.0656348376  -1.9681108044   0.0005343096   0.1478278714
   22  -0.6640400688  -0.5364584765  -0.5208292331   0.0000000000   0.0114770671
   22   0.0010000000   2.5316439510   1.1039973439  -0.0496735295  -0.0259041299
   23   2.0401589298   2.0401589298   2.1376829629  -0.0005502111   0.1453104385
   23   0.4511057019   0.6848360193   0.5722790162   0.0000000000   0.0114770671
   23   0.0009999999   2.5892207506   1.1039867654   0.0542977150   0.0384854500
   24  -2.0401589298   2.0401589298   2.1376829629  -0.0005502111   0.1453104385
   24  -0.4511057019   0.6848360193   0.5722790162   0.0000000000   0.0114770671
   24   0.0009999999   2.5892207506   1.1039867654   0.0542977150   0.0384854500
   25   2.0656348376   2.0656348376  -1.9681108044   0.0005343096   0.1478278714
   25   0.6640400688   0.5364584765  -0.5208292331   0.0000000000   0.0114770671
   25   0.0010000000   2.5316439510   1.1039973439  -0.0496735295  -0.0259041299
   26  -2.0656348376   2.0656348376  -1.9681108044   0.0005343096   0.1478278714
   26  -0.6640400688   0.5364584765  -0.5208292331   0.0000000000   0.0114770671
   26   0.0010000000   2.5316439510   1.1039973439  -0.0496735295  -0.0259041299
   27   0.1320700030  -3.5524037506   0.2295940362   0.0002016898   0.0589047380
   27   0.0415166948  -0.9915332219   0.1230375308   0.0000000000   0.0046375209
   27   0.0009999999   2.4448007826   1.1039990422  -0.0309661747  -0.0221597127
   28  -0.1320700030  -3.5524037506   0.2295940362   0.0002016898   0.0589047380
   28  -0.0415166948  -0.9915332219   0.1230375308   0.0000000000   0.0046375209
   28   0.0009999999   2.4448007826   1.1039990422  -0.0309661747  -0.0221597127
   29   0.1328978066  -3.5746699149  -0.0353737734   0.0002164060   0.0596218988
   29   0.0421303203  -0.9981276456   0.0443422962   0.0000000000   0.0046375209
   29   0.0010000000   2.4440942929   1.1039992347  -0.0359075623  -0.0241297710
   30  -0.1328978066  -3.5746699149  -0.0353737734   0.0002164060   0.0596218988
   30  -0.0421303203  -0.9981276456   0.0443422962   0.0000000000   0.0046375209
   30   0.0010000000   2.4440942929   1.1039992347  -0.0359075623  -0.0241297710
   31   0.1320700030   3.5524037506   0.2295940362   0.0002016898   0.0589047380
   31   0.0415166948   0.9915332219   0.1230375308   0.0000000000   0.0046375209
   31   0.0009999999   2.4448007826   1.1039990422  -0.0309661747  -0.0221597127
   32  -0.1320700030   3.5524037506   0.2295940362   0.0002016898   0.0589047380
   32  -0.0415166948   0.9915332219   0.1230375308   0.0000000000   0.0046375209
   32   0.0009999999   2.4448007826   1.1039990422  -0.0309661747  -0.0221597127
   33   0.1328978066   3.5746699149  -0.0353737734   0.0002164060   0.0596218988
   33   0.0421303203   0.9981276456   0.0443422962   0.0000000000   0.0046375209
   33   0.0010000000   2.4440942929   1.1039992347  -0.0359075623  -0.0241297710
   34  -0.1328978066   3.5746699149  -0.0353737734   0.0002164060   0.0596218988
   34  -0.0421303203   0.9981276456   0.0443422962   0.0000000000   0.0046375209
   34   0.0010000000   2.4440942929   1.1039992347  -0.0359075623  -0.0241297710
   35   0.1227680279  -0.1227680279   3.3997243263  -0.0001897971   0.0507400027
   35   0.0026117694  -0.0375532640   0.9992912143   0.0000000000   0.0046375209
   35   0.0010000000   2.5470841348   1.1039999761   0.0744468071   0.0348544149
   36  -0.1227680279  -0.1227680279   3.3997243263  -0.0001897971   0.0507400027
   36  -0.0026117694  -0.0375532640   0.9992912143   0.0000000000   0.0046375209
   36   0.0010000000   2.5470841348   1.1039999761   0.0744468071   0.0348544149
   37   0.1377492851  -0.1377492851  -3.6076403918   0.0002996790   0.0638428207
   37   0.0445935187  -0.0361619484  -0.9983505054   0.0000000000   0.0046375209
   37   0.0010000000   2.5616783182   1.1040000000  -0.0777044872  -0.0363978445
   38  -0.1377492851  -0.1377492851  -3.6076403918   0.0002996790   0.0638428207
   38  -0.0445935187  -0.0361619484  -0.9983505054   0.0000000000   0.0046375209
   38   0.0010000000   2.5616783182   1.1040000000  -0.0777044872  -0.0363978445
   39   0.1227680279   0.1227680279   3.3997243263  -0.0001897971   0.0507400027
   39   0.0026117694   0.0375532640   0.9992912143   0.0000000000   0.0046375209
   39   0.0010000000   2.5470841348   1.1039999761   0.0744468071   0.0348544149
   40  -0.1227680279   0.1227680279   3.3997243263  -0.0001897971   0.0507400027
   40  -0.0026117694   0.0375532640   0.9992912143   0.0000000000   0.0046375209