 $CONTRL SCFTYP=RHF RUNTYP=energy local=svd
 MAXIT=100 ICUT=11 ISPHER=1 ICHARG=1 exetyp=run $END
 $BASIS GBASIS=N311 NGAUSS=6 NDFUNC=1 NPFUNC=1
 DIFFS=.T. DIFFSP=.T. $END
 $SYSTEM MWORDS=100 MEMDDI=100 $END
 $SCF FDIFF=.F. DIIS=.T. DIRSCF=.T. vvos=.t. DAMP=.T. $END
 $LOCAL orient=.t. $END
 $DATA

 C1
 N   7     -0.4572996164  -1.7333081362  -2.2298016100
 N   7     -1.4295554734  -1.9693856307  -3.0247976563
 N   7     -1.4904670691  -0.9815865680  -3.8332434734
 C   6     -0.5352735153  -0.0631035735  -3.5725689658
 C   6      0.1465959443  -0.5592249774  -2.5140662998
 C   6     -0.1202214061  -2.6910168887  -1.1649840900
 H   1     -0.8154970688  -3.5115271009  -1.2383683414
 H   1      0.8913551626  -3.0379798983  -1.3161213483
 H   1     -0.4203177921   0.8360808070  -4.1378778638
 H   1      0.9806002967  -0.1832180862  -1.9623480286
 C   6     -2.5126197557  -0.9504595357  -4.8910291344
 H   1     -2.0214076971  -0.9778488272  -5.8526940170
 H   1     -3.1368113601  -1.8197611871  -4.7611623945
 H   1     -3.0953885941  -0.0475345130  -4.7838019770
 H   1     -0.2176029575  -2.1976316930  -0.2092045039
 N   7     -1.5718265469   1.2939268952  -0.1853622089
 C   6     -1.6334459756   0.1749491557   0.6034295758
 C   6     -2.5992041071  -0.6460689002   0.1128494290
 C   6     -3.1480312072   0.0136328415  -1.0319483952
 C   6     -2.4908481550   1.1953963590  -1.1771779576
 N   7     -0.7271276282   2.3788166026  -0.0382394211
 H   1     -0.8811221722   2.8172380255   0.8469022708
 H   1      0.2258755470   2.0845457394  -0.1060628649
 H   1     -3.9330554102  -0.3494722691  -1.6646764982
 H   1     -2.5926819297   1.9789750706  -1.8979543771
 C   6     -3.0115623015  -1.9816883649   0.6607058578
 H   1     -2.8714630763  -2.7687295169  -0.0750684015
 H   1     -2.4272872958  -2.2391895739   1.5380833993
 H   1     -4.0596522015  -1.9827315348   0.9468953579
 H   1     -0.9831838053   0.0600852713   1.4470879189
 $end
