!  test of gradient for an ECP basis set...yellow PbI2
!
!                         FINAL E= -781.2913140523
!
!                         ----------------------
!                         GRADIENT OF THE ENERGY
!                         ----------------------
!
! UNITS ARE HARTREE/BOHR    E'X               E'Y               E'Z
!    1 PB               0.000000000       0.000000000       0.007102326
!    2 I                0.004749743       0.000000000      -0.003551163
!    3 I               -0.004749743       0.000000000      -0.003551163
!
!                   MAXIMUM GRADIENT =    0.007102326
!                       RMS GRADIENT =    0.003663402
!
!
!                     --------------------
!                     INTERNAL COORDINATES
!                     --------------------
!
!                 - - ATOMS - -         COORDINATE        GRADIENT
! NO.   TYPE    I  J  K  L  M  N         (ANG,DEG)     (H/B,H/RAD)
! ----------------------------------------------------------------
!   1 STRETCH   1  2                     2.8090772      -0.0059233
!   2 STRETCH   1  3                     2.8090772      -0.0059233
!   3 BEND      2  1  3                100.7799762      -0.0015523
!
!                   MAXIMUM GRADIENT =    0.005923285
!                       RMS GRADIENT =    0.004918676
!  $VIB
!          IVIB=   0 IATOM=   0 ICOORD=   0 E=     -781.2913140523
!  0.000000000E+00 0.000000000E+00 7.102325505E-03 4.749742826E-03 0.000000000E+00
! -3.551162748E-03-4.749742826E-03 0.000000000E+00-3.551162748E-03
!  1.444826694E-13-1.414503988E-15-4.303511054E+00
!
!
 $contrl scftyp=rhf runtyp=gradient pp=read nzvar=3 $end
 $system mwords=100 $end
 $basis  basnam(1)=pb,i,i $end
 $guess  guess=huckel $end
 $zmat   izmat(1)=1,1,2,  1,1,3,  2,2,1,3 $end
 $mp2    code=ims $end
 $data
PbI2
Cnv 2

PB         82.0    .0000000000    .0000000000    .0060323984
I          53.0   2.1641182880    .0000000000   1.7969838008
 $end
 $pb
S   11
1       544.6750000              0.0003190
2        36.5128000              0.0242140
3        22.7761000             -0.1854660
4        14.2262000              0.5460900
5         6.8950000             -0.8705150
6         4.3096900             -0.2035780
7         1.8008500              0.9089240
8         0.8907680              0.5320000
9         0.3189680              0.0322840
10        0.1483520             -0.0052680
11        0.0632880              0.0010520
S   11
1       544.6750000             -0.0001460
2        36.5128000             -0.0083480
3        22.7761000              0.0694480
4        14.2262000             -0.2207290
5         6.8950000              0.4003450
6         4.3096900              0.0629640
7         1.8008500             -0.5315590
8         0.8907680             -0.4479460
9         0.3189680              0.3627060
10        0.1483520              0.6966730
11        0.0632880              0.2440990
S   1
1         0.3189680              1.0000000
S   1
1         0.1483520              1.0000000
S   1
1         0.0681000              1.0000000
P   9
1        18.6489000             -0.0178000
2        11.6679000              0.1793570
3         7.2934900             -0.4167250
4         2.0284900              0.5595180
5         1.0409700              0.4925180
6         0.5141900              0.1323700
7         0.2286510              0.0080590
8         0.0958280              0.0007990
9         0.0392290             -0.0000270
P   9
1        18.6489000              0.0030930
2        11.6679000             -0.0453160
3         7.2934900              0.1173920
4         2.0284900             -0.2007620
5         1.0409700             -0.1848820
6         0.5141900             -0.0054120
7         0.2286510              0.3698780
8         0.0958280              0.5468910
9         0.0392290              0.2294930
P   1
1         0.3696000              1.0000000
P   1
1         0.0586000              1.0000000
D   8
1        61.3970000              0.0003250
2        12.3735000              0.0132110
3         6.9268600             -0.0727810
4         2.3308700              0.2697210
5         1.2101900              0.4265860
6         0.6005160              0.3381390
7         0.2807870              0.1358660
8         0.1093000              0.0142810
D   1
1         0.2807870              1.0000000
D   1
1         0.1093000              1.0000000
F   1
1         0.2900000              1.0000000

 $end
 $i
S   11
1         5.546500E+03           1.560000E-04
2         8.382140E+02           9.860000E-04
3         1.821870E+02           2.792000E-03
4         3.121230E+01          -4.325100E-02
5         1.953140E+01           2.341340E-01
6         8.240990E+00          -7.509430E-01
7         2.194550E+00           8.829680E-01
8         1.109110E+00           4.620610E-01
9         3.746410E-01           2.228600E-02
10        1.770800E-01          -4.353000E-03
11        8.106100E-02           1.102000E-03
S   11
1         5.546500E+03          -7.300000E-05
2         8.382140E+02          -5.080000E-04
3         1.821870E+02          -1.158000E-03
4         3.121230E+01           1.219300E-02
5         1.953140E+01          -8.785400E-02
6         8.240990E+00           3.382000E-01
7         2.194550E+00          -5.765500E-01
8         1.109110E+00          -4.092980E-01
9         3.746410E-01           5.674590E-01
10        1.770800E-01           6.124890E-01
11        8.106100E-02           1.432310E-01
S   1
1         3.746410E-01           1.000000E+00
S   1
1         1.770800E-01           1.000000E+00
S   1
1         1.001000E-01           1.000000E+00
P   9
1         1.889880E+02           5.850000E-04
2         2.128680E+01           3.692300E-02
3         1.003960E+01          -2.353240E-01
4         3.451800E+00           3.414830E-01
5         1.974560E+00           5.347880E-01
6         1.024200E+00           2.651410E-01
7         4.494370E-01           2.578700E-02
8         1.866480E-01           5.220000E-04
9         7.348100E-02           6.060000E-04
P   9
1         1.889880E+02          -2.560000E-04
2         2.128680E+01          -1.168200E-02
3         1.003960E+01           8.319200E-02
4         3.451800E+00          -1.569700E-01
5         1.974560E+00          -2.245180E-01
6         1.024200E+00          -1.144510E-01
7         4.494370E-01           3.753560E-01
8         1.866480E-01           5.751360E-01
9         7.348100E-02           2.459170E-01
P   1
1         5.981000E-01           1.000000E+00
P   1
1         9.618000E-02           1.000000E+00
D   9
1         1.326620E+02           5.720000E-04
2         3.760540E+01           4.402000E-03
3         1.038910E+01          -4.092200E-02
4         6.490170E+00           9.966100E-02
5         3.454510E+00           3.226630E-01
6         1.844130E+00           4.003430E-01
7         9.624780E-01           2.683060E-01
8         4.728530E-01           8.484700E-02
9         1.932000E-01           7.632000E-03
D   1
1         4.728530E-01           1.000000E+00
D   1
1         1.932000E-01           1.000000E+00
F   1
1         4.064000E-01           1.000000E+00

 $end
 $ecp
PB-ECP GEN    60    5
1     ----- h-ul potential -----
      0.0000000       2       1.0000000
2     ----- s-h potential -----
    281.2854990       2      12.2963030
     62.5202170       2       8.6326340
4     ----- p-h potential -----
     72.2768970       2      10.2417900
    144.5910830       2       8.9241760
      4.7586930       2       6.5813420
      9.9406210       2       6.2554030
4     ----- d-h potential -----
     35.8485070       2       7.7543360
     53.7243420       2       7.7202810
     10.1152560       2       4.9702640
     14.8337310       2       4.5637890
2     ----- f-h potential -----
     12.2098920       2       3.8875120
     16.1902910       2       3.8119630
2     ----- g-h potential -----
     -9.0966650       2       5.6915770
    -11.5319960       2       5.7155670
I-ECP GEN    28    4
1     ----- g-ul potential -----
      0.00000000      2       1.00000000
3     ----- s-g potential -----
     49.98964900      2      40.03337600
    281.00655600      2      17.30057600
     61.41673900      2       8.85172000
4     ----- p-g potential -----
     67.41623900      2      15.72014100
    134.80769600      2      15.20822200
     14.56654800      2       8.29418600
     28.96842200      2       7.75394900
4     ----- d-g potential -----
     35.53875600      2      13.81775100
     53.33975900      2      13.58780500
      9.71646600      2       6.94763000
     14.97750000      2       6.96009900
4     ----- f-g potential -----
    -20.17661800      2      18.52295000
    -26.08807700      2      18.25103500
     -0.22043400      2       7.55790100
     -0.22164600      2       7.59740400
I-ECP
 $end
! TRAVIS-CI SMALL
