!
!                        FINAL E = -1531.1517518902
!
!                         ----------------------
!                         GRADIENT OF THE ENERGY
!                         ----------------------
!
! UNITS ARE HARTREE/BOHR    E'X               E'Y               E'Z 
!    1 LU               0.000000793       0.000000000       0.000000000
!    2 F               -0.015567317       0.000000000       0.000000000
!    3 F                0.007783263      -0.013481045       0.000000000
!    4 F                0.007783262       0.013481046       0.000000000
!
!                   MAXIMUM GRADIENT =    0.015567317
!                       RMS GRADIENT =    0.007783406
!  $VIB   
!          IVIB=   0 IATOM=   0 ICOORD=   0 E=    -1531.1517518902
!  7.928246736E-07 0.000000000E+00 0.000000000E+00-1.556731736E-02 0.000000000E+00
!  0.000000000E+00 7.783262856E-03-1.348104507E-02 0.000000000E+00 7.783261677E-03
!  1.348104583E-02 0.000000000E+00
!  7.865714054E-06 7.093196050E-10 0.000000000E+00
!
 $contrl scftyp=rhf
  maxit=200
  runtyp=gradient ispher=1
  pp=read
 $end             
 $system mwords=50 memddi=50 $end
 $basis  basnam(1)=lu,f,f,f $end
 $guess  guess=huckel $end
 $scf    
  soscf=.t. diis=.f.
  damp=.t. shift=.t.
 $end             
 $data
LuF3   
CS  
    
Lu    71.0     0.00000    -0.00000     0.00000
F     9.0     1.94300    -0.00000     0.00000
F     9.0    -0.97150     1.68269     0.00000
F     9.0    -0.97150    -1.68269     0.00000
 $end          
 $ecp
LU-ECP GEN    28    5
1     ----- h-ul potential -----
      0.000000000     2       1.000000000
1     ----- s-h potential -----
    989.995584000     2      35.162097000
1     ----- p-h potential -----
    278.865652000     2      19.464402000
1     ----- d-h potential -----
     71.009178000     2      10.006865000
1     ----- f-h potential -----
    -47.405890000     2      23.517932000
1     ----- g-h potential -----
    -35.557146000     2      29.412238000
F-ECP NONE
F-ECP NONE
F-ECP NONE
 $end
 $lu
S   5
1     95169.76700                0.000022
2     15488.40300                0.000145
3      3776.23350                0.000651
4      1079.05010                0.002038
5       268.95380                0.005127
S   1
1        63.46790                1.0
S   1
1        45.13320                1.0
S   1
1        21.45680                1.0
S   1
1         5.34830                1.0
S   1
1         2.67780                1.0
S   1
1         1.02870                1.0
S   1
1         0.44080                1.0
S   1
1         0.07910                1.0
S   1
1         0.03130                1.0
P   6
1      4043.97480                0.000294
2       958.87710                0.002353
3       309.12200                0.010441
4       114.22030                0.025828
5        37.10910                0.085047
6        20.45790               -0.200371
P   1
1        14.59320                1.0
P   1
1         6.52750                1.0
P   1
1         3.24480                1.0
P   1
1         1.45040                1.0
P   1
1         0.66350                1.0
P   1
1         0.28580                1.0
P   1
1         0.08000                1.0
D   6
1       484.52750                0.002286
2       146.66550                0.018629
3        56.37790                0.074088
4        23.67110                0.161554
5         9.44010                0.308091
6         4.37120                0.448334
D   1
1         1.95800                1.0
D   1
1         0.72720                1.0
D   1
1         0.24600                1.0
D   1
1         0.07440                1.0
F   5
1       175.15590                0.004102
2        62.89090                0.039086
3        28.36240                0.147044
4        13.24780                0.271092
5         6.14400                0.345665
F   1
1         2.76230                1.0
F   1
1         1.15740                1.0
F   1
1         0.42440                1.0
G   4
1        28.36240                0.047905
2        13.24780                0.150128
3         6.14400                0.322911
4         2.76230                0.444494
G   1
1         1.15740                1.0
G   1
1         0.42440                1.0

 $end
 $f
S   10
1         1.950000E+04           5.070000E-04
2         2.923000E+03           3.923000E-03
3         6.645000E+02           2.020000E-02
4         1.875000E+02           7.901000E-02
5         6.062000E+01           2.304390E-01
6         2.142000E+01           4.328720E-01
7         7.950000E+00           3.499640E-01
8         2.257000E+00           4.323300E-02
9         8.815000E-01          -7.892000E-03
10        3.041000E-01           2.384000E-03
S   10
1         1.950000E+04          -1.170000E-04
2         2.923000E+03          -9.120000E-04
3         6.645000E+02          -4.717000E-03
4         1.875000E+02          -1.908600E-02
5         6.062000E+01          -5.965500E-02
6         2.142000E+01          -1.400100E-01
7         7.950000E+00          -1.767820E-01
8         2.257000E+00           1.716250E-01
9         8.815000E-01           6.050430E-01
10        3.041000E-01           3.695120E-01
S   1
1         2.257000E+00           1.000000E+00
S   1
1         3.041000E-01           1.000000E+00
P   5
1         4.388000E+01           1.666500E-02
2         9.926000E+00           1.044720E-01
3         2.930000E+00           3.172600E-01
4         9.132000E-01           4.873430E-01
5         2.672000E-01           3.346040E-01
P   1
1         9.132000E-01           1.000000E+00
P   1
1         2.672000E-01           1.000000E+00
D   1
1         3.107000E+00           1.000000E+00
D   1
1         8.550000E-01           1.000000E+00
F   1
1         1.917000E+00           1.0000000

 $end
! TRAVIS-CI SMALL
