!
!                        FINAL E = -462.8108931766
!
!                         ----------------------
!                         GRADIENT OF THE ENERGY
!                         ----------------------
!
! UNITS ARE HARTREE/BOHR    E'X               E'Y               E'Z 
!    1 AU               0.000000000       0.000000000       0.024491853
!    2 XE               0.000000000       0.000000000      -0.024491853
!
!                   MAXIMUM GRADIENT =    0.024491853
!                       RMS GRADIENT =    0.014140378
!  $VIB   
!          IVIB=   0 IATOM=   0 ICOORD=   0 E=     -462.8108931766
!  0.000000000E+00 0.000000000E+00 2.449185251E-02 0.000000000E+00 0.000000000E+00
! -2.449185251E-02
! -6.210626882E-34 4.568807586E-34-1.614240225E+00
!
 $contrl scftyp=rhf
  maxit=200 icharg=1
  runtyp=gradient ispher=1
  pp=read
 $end
 $system mwords=50 memddi=50 $end
 $guess  guess=huckel $end
 $scf
  soscf=.t. diis=.f.
  damp=.t. shift=.t.
 $end
 $data
AuXe+
C1
 Au         79.0   0.0 0.0 0.0
S   10
1        36.0126000              0.0190290
2        22.5645000             -0.1678000
3        14.1620000              0.4966770
4         8.8548700             -0.2662560
5         5.0607200             -0.6998980
6         1.4740500              0.8731080
7         0.7049130              0.5025820
8         0.2177870              0.0321960
9         0.0974080             -0.0055030
10        0.0412140              0.0025190
S   10
1        36.0126000             -0.0067770
2        22.5645000              0.0600080
3        14.1620000             -0.1833280
4         8.8548700              0.1147190
5         5.0607200              0.2488220
6         1.4740500             -0.4376710
7         0.7049130             -0.3311080
8         0.2177870              0.2741810
9         0.0974080              0.6377380
10        0.0412140              0.3092360
S   10
1        36.0126000              0.0039090
2        22.5645000              0.0337600
3        14.1620000             -0.1660600
4         8.8548700             -0.0517890
5         5.0607200              0.7950230
6         1.4740500             -1.8059270
7         0.7049130              0.5612390
8         0.2177870              1.8784270
9         0.0974080             -0.9692290
10        0.0412140             -0.5756350
S   10
1        36.0126000             -0.0119140
2        22.5645000              0.1330690
3        14.1620000             -0.4342870
4         8.8548700              0.1701570
5         5.0607200              1.0647560
6         1.4740500             -4.0055360
7         0.7049130              4.4028320
8         0.2177870             -1.4321630
9         0.0974080             -1.1432550
10        0.0412140              1.3908690
S   1
1         0.0412140              1.0000000
P   9
1        21.5954000             -0.0132180
2        13.5145000              0.0801960
3         6.2551400             -0.2966860
4         1.7181400              0.5289590
5         0.8694390              0.4788890
6         0.4267590              0.1576200
7         0.1842970              0.0138970
8         0.0763790              0.0008350
9         0.0312200             -0.0000290
P   9
1        21.5954000              0.0030800
2        13.5145000             -0.0214060
3         6.2551400              0.0867760
4         1.7181400             -0.1897740
5         0.8694390             -0.1858350
6         0.4267590              0.0047800
7         0.1842970              0.3638360
8         0.0763790              0.5417640
9         0.0312200              0.2345610
P   9
1        21.5954000              0.0070860
2        13.5145000             -0.0474930
3         6.2551400              0.1918930
4         1.7181400             -0.4636370
5         0.8694390             -0.4351380
6         0.4267590              0.4944030
7         0.1842970              0.6751140
8         0.0763790              0.1315360
9         0.0312200              0.0024710
P   9
1        21.5954000              0.0129200
2        13.5145000             -0.0820290
3         6.2551400              0.3386190
4         1.7181400             -1.2549920
5         0.8694390              0.2258130
6         0.4267590              1.5758790
7         0.1842970             -0.8043540
8         0.0763790             -0.5073130
9         0.0312200              0.0102040
P   1
1         0.0312200              1.0000000
D   8
1        87.0208000              0.0000440
2        11.0668000              0.0142880
3         6.6604700             -0.0688760
4         1.9469600              0.2395590
5         0.9847060              0.3873230
6         0.4746550              0.3487560
7         0.2165580              0.1984920
8         0.0914720              0.0498790
D   8
1        87.0208000             -0.0000310
2        11.0668000             -0.0199590
3         6.6604700              0.0953200
4         1.9469600             -0.4213430
5         0.9847060             -0.5069330
6         0.4746550              0.2854660
7         0.2165580              0.5825650
8         0.0914720              0.2194620
D   8
1        87.0208000             -0.0000440
2        11.0668000              0.0350830
3         6.6604700             -0.1619420
4         1.9469600              1.0421550
5         0.9847060             -0.2648650
6         0.4746550             -1.1163050
7         0.2165580              0.5457620
8         0.0914720              0.4996220
D   1
1         0.0914720              1.0000000
F   1
1         1.4385000              1.0000000
F   1
1         0.4878000              1.0000000
G   1
1         1.2257000              1.0000000

 Xe         54.0   0.0   0.0   2.6
S   11
1      6456.4000000              0.0002500
2       974.0610000              0.0016300
3       214.4290000              0.0047330
4        31.3308000             -0.0336990
5        19.6130000              0.2439310
6         8.8860900             -0.7646530
7         2.3250800              0.9007940
8         1.1842200              0.4415130
9         0.4268540              0.0214160
10        0.2016450             -0.0030880
11        0.0921780              0.0008510
S   11
1      6456.4000000             -0.0001300
2       974.0610000             -0.0008850
3       214.4290000             -0.0023580
4        31.3308000              0.0072910
5        19.6130000             -0.0926390
6         8.8860900              0.3537950
7         2.3250800             -0.6158300
8         1.1842200             -0.4130600
9         0.4268540              0.5793340
10        0.2016450              0.6254620
11        0.0921780              0.1423370
S   1
1         0.4268540              1.0000000
S   1
1         0.2016450              1.0000000
S   1
1         0.1143000              1.0000000
P   9
1       191.1700000              0.0007650
2        22.5178000              0.0369520
3        10.0604000             -0.2806880
4         5.5576200              0.1427170
5         2.6962500              0.6356540
6         1.3076400              0.3932570
7         0.5306750              0.0410560
8         0.2224610             -0.0022510
9         0.0868810              0.0007740
P   9
1       191.1700000             -0.0003290
2        22.5178000             -0.0127810
3        10.0604000              0.1082740
4         5.5576200             -0.0720510
5         2.6962500             -0.2845800
6         1.3076400             -0.1852050
7         0.5306750              0.3583360
8         0.2224610              0.5883940
9         0.0868810              0.2572450
P   1
1         0.6953000              1.0000000
P   1
1         0.1135000              1.0000000
D   9
1       142.9710000              0.0007360
2        41.3057000              0.0053720
3        10.9222000             -0.0288270
4         6.8240800              0.1199100
5         3.6669600              0.3324640
6         1.9828900              0.3892090
7         1.0539900              0.2483590
8         0.5299030              0.0776110
9         0.2192000              0.0073660
D   1
1         0.5299030              1.0000000
D   1
1         0.2192000              1.0000000
F   1
1         0.4779000              1.0000000

 $end
 $ecp
AU-ECP GEN    60    5
1     ----- h-ul potential -----
      0.0000000       2       1.0000000
2     ----- s-h potential -----
    426.6418670       2      13.5232180
     36.8006680       2       6.2643840
4     ----- p-h potential -----
     87.0020910       2      11.4138670
    174.0043700       2      10.3292150
      8.8706100       2       5.7074240
     17.9024380       2       4.8281650
4     ----- d-h potential -----
     49.8836550       2       7.4309630
     74.6845490       2       8.3219900
      6.4862270       2       4.6096420
      9.5468210       2       3.5115070
2     ----- f-h potential -----
      8.7916400       2       3.0846390
     11.6584560       2       3.0247430
2     ----- g-h potential -----
     -5.2343370       2       3.9784420
     -6.7381420       2       4.0114910
XE-ECP GEN    28    4
1     ----- g-ul potential -----
      0.0000000       2       1.0000000
3     ----- s-g potential -----
     49.9979620       2      40.0051840
    281.0133030       2      17.8122140
     61.5382550       2       9.3041500
4     ----- p-g potential -----
     67.4391420       2      15.7017720
    134.8747110       2      15.2586080
     14.6633000       2       9.2921840
     29.3547300       2       8.5590030
6     ----- d-g potential -----
     35.4369080       2      15.1856000
     53.1957720       2      14.2845000
      9.0462320       2       7.1218890
     13.2236810       2       6.9919630
      0.0848530       2       0.6239460
      0.0441550       2       0.6472840
4     ----- f-g potential -----
    -23.0892950       2      20.8815570
    -30.0744750       2      20.7834430
     -0.2882270       2       5.2533890
     -0.3869240       2       5.3611880
 $end
! TRAVIS-CI SMALL
