!
!                        FINAL E = -305.0807964058
!
!                         ----------------------
!                         GRADIENT OF THE ENERGY
!                         ----------------------
!
! UNITS ARE HARTREE/BOHR    E'X               E'Y               E'Z
!    1 HG               0.000000000       0.000000000       0.000832291
!    2 HG               0.000000000       0.000000000      -0.000832291
!
!                   MAXIMUM GRADIENT =    0.000832291
!                       RMS GRADIENT =    0.000480523
!  $VIB
!          IVIB=   0 IATOM=   0 ICOORD=   0 E=     -305.0807964058
!  0.000000000E+00 0.000000000E+00 8.322908042E-04 0.000000000E+00 0.000000000E+00
! -8.322908042E-04
! -9.047286180E-23-9.047286180E-23-7.224133469E-14
!
 $contrl scftyp=rhf
  maxit=200
  runtyp=gradient ispher=1
  pp=read
 $end
 $system mwords=50 memddi=50 $end
 $basis  basnam(1)=hg,hg $end
 $guess  guess=huckel $end
 $scf
  soscf=.t. diis=.f.
  damp=.t. shift=.t.
 $end
 $data
Mercury dimer
DNH 8

 HG         80.0   0.0000000000   0.0000000000   2.1812281271
 $end
 $hg
S   10
1        98.3058000              0.0010330
2        19.6406000             -0.1063820
3        12.3397000              0.5320730
4         7.7478200             -0.5223240
5         4.8629100             -0.5373210
6         1.5771900              0.8847880
7         0.7529260              0.5138340
8         0.2351120              0.0294070
9         0.1039680             -0.0061590
10        0.0434000              0.0013840
S   10
1        98.3058000             -0.0003560
2        19.6406000              0.0379090
3        12.3397000             -0.2000130
4         7.7478200              0.2240930
5         4.8629100              0.1793740
6         1.5771900             -0.4508330
7         0.7529260             -0.3390550
8         0.2351120              0.2934140
9         0.1039680              0.6446280
10        0.0434000              0.2916260
S   10
1        98.3058000             -0.0002170
2        19.6406000             -0.0440670
3        12.3397000              0.2876950
4         7.7478200             -0.1894760
5         4.8629100             -0.7807040
6         1.5771900              2.1756040
7         0.7529260             -0.8865840
8         0.2351120             -1.8749170
9         0.1039680              1.2470530
10        0.0434000              0.3523510
S   10
1        98.3058000             -0.0020930
2        19.6406000              0.1557830
3        12.3397000             -0.7951410
4         7.7478200              0.9970540
5         4.8629100              0.5928610
6         1.5771900             -4.4071970
7         0.7529260              5.2898370
8         0.2351120             -2.8866330
9         0.1039680              0.3158740
10        0.0434000              0.8226100
S   1
1         0.0434000              1.0000000
P   9
1        21.4065000             -0.0128370
2        13.3929000              0.0865310
3         6.5102100             -0.3080410
4         1.8222200              0.5327940
5         0.9265070              0.4822070
6         0.4550820              0.1546950
7         0.1927600              0.0132010
8         0.0786890              0.0005850
9         0.0317290              0.0000200
P   9
1        21.4065000              0.0026690
2        13.3929000             -0.0218770
3         6.5102100              0.0865390
4         1.8222200             -0.1847680
5         0.9265070             -0.1773950
6         0.4550820              0.0009770
7         0.1927600              0.3536030
8         0.0786890              0.5435820
9         0.0317290              0.2455390
P   9
1        21.4065000              0.0061400
2        13.3929000             -0.0480560
3         6.5102100              0.1891060
4         1.8222200             -0.4381190
5         0.9265070             -0.4321930
6         0.4550820              0.4570570
7         0.1927600              0.6953570
8         0.0786890              0.1420160
9         0.0317290              0.0020300
P   9
1        21.4065000              0.0130140
2        13.3929000             -0.0890970
3         6.5102100              0.3480200
4         1.8222200             -1.2184470
5         0.9265070              0.1232280
6         0.4550820              1.6284380
7         0.1927600             -0.7824510
8         0.0786890             -0.5112540
9         0.0317290              0.0165110
P   1
1         0.0317290              1.0000000
D   8
1        86.9881000              0.0000580
2        11.9913000              0.0127790
3         6.9364800             -0.0689630
4         2.0864100              0.2415630
5         1.0766400              0.3878580
6         0.5311530              0.3454410
7         0.2488080              0.1915090
8         0.1081700              0.0465020
D   8
1        86.9881000              0.0000500
2        11.9913000              0.0192460
3         6.9364800             -0.1034870
4         2.0864100              0.4847690
5         1.0766400              0.5069510
6         0.5311530             -0.3625720
7         0.2488080             -0.5729800
8         0.1081700             -0.1666370
D   8
1        86.9881000             -0.0000430
2        11.9913000              0.0337600
3         6.9364800             -0.1746100
4         2.0864100              1.2017020
5         1.0766400             -0.5030930
6         0.5311530             -1.1299990
7         0.2488080              0.7749310
8         0.1081700              0.3655340
D   1
1         0.1081700              1.0000000
F   1
1         1.5814000              1.0000000
F   1
1         0.5423000              1.0000000
G   1
1         1.3737000              1.0000000

 $end
 $ecp
HG-ECP GEN    60    5
1     ----- h-ul potential -----
      0.0000000       2       1.0000000
2     ----- s-h potential -----
    275.7747970       2      12.4130710
     49.2678980       2       6.8979130
4     ----- p-h potential -----
     80.5069840       2      11.3103200
    161.0348240       2      10.2107730
      9.0834160       2       5.9398040
     18.3677730       2       5.0197550
4     ----- d-h potential -----
     51.1372560       2       8.4078950
     76.7074590       2       8.2140860
      6.5618210       2       4.0126120
      9.8180700       2       3.7953980
2     ----- f-h potential -----
      9.4290010       2       3.2731060
     12.4948560       2       3.2083210
2     ----- g-h potential -----
     -6.3384140       2       4.4852960
     -8.0998630       2       4.5132000
HG-ECP
 $end
! TRAVIS-CI SMALL
