!
! The energy and gradient of an arbitrary 6th row compound: Pb(BiH2)(PoH)AtH.
!
!                        TOTAL ENERGY =     -905.7430899822
!                         ----------------------
!                         GRADIENT OF THE ENERGY
!                         ----------------------
!
! UNITS ARE HARTREE/BOHR    E'X               E'Y               E'Z
!    1 PB               0.005397156      -0.020117043       0.025510074
!    2 PO               0.000030541       0.006875675      -0.017824335
!    3 H               -0.003007354      -0.000477170       0.019421550
!    4 AT              -0.012207344      -0.004823701      -0.001293441
!    5 H                0.021469084      -0.025290670      -0.004745966
!    6 BI              -0.029937614      -0.013495771      -0.007636987
!    7 H                0.006376264       0.031477891      -0.004462135
!    8 H                0.011879268       0.025850790      -0.008968761
!
!                   MAXIMUM GRADIENT =    0.031477891
!                       RMS GRADIENT =    0.016087039
!  $VIB
!          IVIB=   0 IATOM=   0 ICOORD=   0 E=     -905.7430899822
!  5.397155899E-03-2.011704277E-02 2.551007420E-02 3.054053693E-05 6.875674711E-03
! -1.782433454E-02-3.007353915E-03-4.771699681E-04 1.942155021E-02-1.220734381E-02
! -4.823701332E-03-1.293441372E-03 2.146908389E-02-2.529067044E-02-4.745965733E-03
! -2.993761448E-02-1.349577128E-02-7.636986598E-03 6.376264134E-03 3.147789086E-02
! -4.462134979E-03 1.187926774E-02 2.585079022E-02-8.968761183E-03
! -2.911748586E+00-3.740825183E+00-8.759435729E-01
! 
 $contrl runtyp=gradient pp=read units=bohr $end
 $guess  guess=huckel $end
 $basis basnam(1)=pb,po,h,at,h,bi,h,h $end
 $data
arbitrary 6th row compound: Pb(BiH2)(PoH)AtH
C1
 PB         82.0000    -0.12929839    -0.14371238    -1.67249213
 PO         84.0000    -3.53569188     3.30186034     0.54293376
 H           1.0000     0.28066908     0.30097443    -4.83379601
 AT         85.0000     4.45079732     1.68343354     0.50282710
 H           1.0000    -1.90464538     1.02400878     2.52940066
 BI         83.0000    -0.86304454    -4.86714845     0.59278199
 H           1.0000     2.25799144    -3.76990925    -0.71385850
 H           1.0000     0.28149633    -2.24545762     2.61496419
 $end

 $h
S   5
1         3.387000E+01           6.068000E-03
2         5.095000E+00           4.530800E-02
3         1.159000E+00           2.028220E-01
4         3.258000E-01           5.039030E-01
5         1.027000E-01           3.834210E-01
S   1
1         3.258000E-01           1.000000E+00
S   1
1         1.027000E-01           1.000000E+00
P   1
1         1.407000E+00           1.000000E+00
P   1
1         3.880000E-01           1.000000E+00
D   1
1         1.057000E+00           1.0000000

 $end
 $pb
S   11
1       544.6750000              0.0003190
2        36.5128000              0.0242140
3        22.7761000             -0.1854660
4        14.2262000              0.5460900
5         6.8950000             -0.8705150
6         4.3096900             -0.2035780
7         1.8008500              0.9089240
8         0.8907680              0.5320000
9         0.3189680              0.0322840
10        0.1483520             -0.0052680
11        0.0632880              0.0010520
S   11
1       544.6750000             -0.0001460
2        36.5128000             -0.0083480
3        22.7761000              0.0694480
4        14.2262000             -0.2207290
5         6.8950000              0.4003450
6         4.3096900              0.0629640
7         1.8008500             -0.5315590
8         0.8907680             -0.4479460
9         0.3189680              0.3627060
10        0.1483520              0.6966730
11        0.0632880              0.2440990
S   1
1         0.3189680              1.0000000
S   1
1         0.1483520              1.0000000
S   1
1         0.0681000              1.0000000
P   9
1        18.6489000             -0.0178000
2        11.6679000              0.1793570
3         7.2934900             -0.4167250
4         2.0284900              0.5595180
5         1.0409700              0.4925180
6         0.5141900              0.1323700
7         0.2286510              0.0080590
8         0.0958280              0.0007990
9         0.0392290             -0.0000270
P   9
1        18.6489000              0.0030930
2        11.6679000             -0.0453160
3         7.2934900              0.1173920
4         2.0284900             -0.2007620
5         1.0409700             -0.1848820
6         0.5141900             -0.0054120
7         0.2286510              0.3698780
8         0.0958280              0.5468910
9         0.0392290              0.2294930
P   1
1         0.3696000              1.0000000
P   1
1         0.0586000              1.0000000
D   8
1        61.3970000              0.0003250
2        12.3735000              0.0132110
3         6.9268600             -0.0727810
4         2.3308700              0.2697210
5         1.2101900              0.4265860
6         0.6005160              0.3381390
7         0.2807870              0.1358660
8         0.1093000              0.0142810
D   1
1         0.2807870              1.0000000
D   1
1         0.1093000              1.0000000
F   1
1         0.2900000              1.0000000

 $end
 $po
S   11
1      2284.7600000              0.0002360
2       345.7740000              0.0011910
3        40.9204000              0.0268960
4        25.5771000             -0.1699090
5        15.9942000              0.4554490
6         6.7938300             -0.9748070
7         1.9270900              0.9172590
8         0.9970320              0.5026630
9         0.3403500              0.0275670
10        0.1617240             -0.0062060
11        0.0735360              0.0013620
S   11
1      2284.7600000              0.0001140
2       345.7740000              0.0006790
3        40.9204000              0.0074840
4        25.5771000             -0.0578310
5        15.9942000              0.1842770
6         6.7938300             -0.4716170
7         1.9270900              0.6656440
8         0.9970320              0.4192020
9         0.3403500             -0.5802240
10        0.1617240             -0.6120840
11        0.0735360             -0.1458700
S   1
1         0.3403500              1.0000000
S   1
1         0.1617240              1.0000000
S   1
1         0.0875000              1.0000000
P   9
1        19.7714000             -0.0144910
2        12.3921000              0.1732690
3         7.7740700             -0.4241670
4         2.2913100              0.5524090
5         1.2059400              0.5120890
6         0.5946110              0.1278370
7         0.2986450              0.0052540
8         0.1297420              0.0020100
9         0.0539350             -0.0001320
P   9
1        19.7714000              0.0021050
2        12.3921000             -0.0508490
3         7.7740700              0.1432890
4         2.2913100             -0.2470410
5         1.2059400             -0.2322350
6         0.5946110              0.0071000
7         0.2986450              0.4246290
8         0.1297420              0.5319740
9         0.0539350              0.1972940
P   1
1         0.4953000              1.0000000
P   1
1         0.0797000              1.0000000
D   8
1        67.9636000              0.0004990
2        14.9883000              0.0101500
3         7.2607400             -0.0719050
4         2.7107000              0.2594360
5         1.4638300              0.4323430
6         0.7558280              0.3375810
7         0.3671760              0.1272930
8         0.1484000              0.0135050
D   1
1         0.3671760              1.0000000
D   1
1         0.1484000              1.0000000
F   1
1         0.3250000              1.0000000

 $end
 $at
S   11
1      2405.3100000              0.0001700
2       365.5650000              0.0008190
3        41.9062000              0.0224870
4        26.2026000             -0.1576560
5        16.3915000              0.4528990
6         7.0834100             -0.9917430
7         2.0331300              0.9225040
8         1.0700700              0.5052420
9         0.3760710              0.0285560
10        0.1794470             -0.0061480
11        0.0818330              0.0013480
S   11
1      2405.3100000             -0.0000820
2       365.5650000             -0.0004930
3        41.9062000             -0.0054020
4        26.2026000              0.0531700
5        16.3915000             -0.1887440
6         7.0834100              0.4997270
7         2.0331300             -0.7071970
8         1.0700700             -0.4337520
9         0.3760710              0.6125730
10        0.1794470              0.6113530
11        0.0818330              0.1365100
S   1
1         0.3760710              1.0000000
S   1
1         0.1794470              1.0000000
S   1
1         0.0966000              1.0000000
P   9
1        20.2970000             -0.0118100
2        12.7312000              0.1669480
3         8.0003400             -0.4251720
4         2.4479600              0.5371220
5         1.3108200              0.5267320
6         0.6458650              0.1326450
7         0.3337580              0.0045660
8         0.1461660              0.0028370
9         0.0608710             -0.0000470
P   9
1        20.2970000              0.0010180
2        12.7312000             -0.0512500
3         8.0003400              0.1534750
4         2.4479600             -0.2616100
5         1.3108200             -0.2555450
6         0.6458650              0.0133140
7         0.3337580              0.4434770
8         0.1461660              0.5252820
9         0.0608710              0.1879620
P   1
1         0.5686000              1.0000000
P   1
1         0.0929000              1.0000000
D   8
1        70.9454000              0.0006200
2        16.2560000              0.0096710
3         7.3603200             -0.0734590
4         2.9233600              0.2525880
5         1.5991200              0.4379470
6         0.8340870              0.3400530
7         0.4081410              0.1230670
8         0.1683000              0.0128990
D   1
1         0.4081410              1.0000000
D   1
1         0.1683000              1.0000000
F   1
1         0.3719000              1.0000000

 $end
 $bi
S   11
1       798.6330000              0.0003890
2        95.0023000              0.0021040
3        21.2520000             -0.1296810
4        13.2919000              0.6651190
5         8.3121000             -0.7740220
6         5.1947600             -0.4577470
7         1.9097200              0.9010720
8         0.9622710              0.5445340
9         0.3560260              0.0337690
10        0.1683270             -0.0052330
11        0.0732650              0.0010360
S   11
1       798.6330000             -0.0001910
2        95.0023000             -0.0008850
3        21.2520000              0.0550530
4        13.2919000             -0.3024060
5         8.3121000              0.3964830
6         5.1947600              0.1783230
7         1.9097200             -0.5704930
8         0.9622710             -0.4792590
9         0.3560260              0.3980000
10        0.1683270              0.7009680
11        0.0732650              0.2315980
S   1
1         0.3560260              1.0000000
S   1
1         0.1683270              1.0000000
S   1
1         0.0784000              1.0000000
P   9
1        19.2259000             -0.0161520
2        12.0378000              0.1760310
3         7.5362100             -0.4201030
4         2.1608400              0.5526740
5         1.1303600              0.4995620
6         0.5667780              0.1344950
7         0.2716080              0.0080460
8         0.1177690              0.0010310
9         0.0493040             -0.0001620
P   9
1        19.2259000              0.0027330
2        12.0378000             -0.0488430
3         7.5362100              0.1318400
4         2.1608400             -0.2252710
5         1.1303600             -0.2078760
6         0.5667780             -0.0155850
7         0.2716080              0.3938490
8         0.1177690              0.5508800
9         0.0493040              0.2111500
P   1
1         0.4469000              1.0000000
P   1
1         0.0743000              1.0000000
D   8
1        65.0224000              0.0003950
2        13.6908000              0.0112010
3         7.0959100             -0.0723170
4         2.5209000              0.2632860
5         1.3406600              0.4273250
6         0.6825580              0.3375340
7         0.3277140              0.1337870
8         0.1306000              0.0146990
D   1
1         0.3277140              1.0000000
D   1
1         0.1306000              1.0000000
F   1
1         0.3164000              1.0000000

 $end
 $ecp
PB-ECP GEN    60    5
1     ----- h-ul potential -----
      0.0000000       2       1.0000000
2     ----- s-h potential -----
    281.2854990       2      12.2963030
     62.5202170       2       8.6326340
4     ----- p-h potential -----
     72.2768970       2      10.2417900
    144.5910830       2       8.9241760
      4.7586930       2       6.5813420
      9.9406210       2       6.2554030
4     ----- d-h potential -----
     35.8485070       2       7.7543360
     53.7243420       2       7.7202810
     10.1152560       2       4.9702640
     14.8337310       2       4.5637890
2     ----- f-h potential -----
     12.2098920       2       3.8875120
     16.1902910       2       3.8119630
2     ----- g-h potential -----
     -9.0966650       2       5.6915770
    -11.5319960       2       5.7155670
PO-ECP GEN    60    5
1     ----- h-ul potential -----
      0.0000000       2       1.0000000
2     ----- s-h potential -----
    283.2447060       2      13.2772270
     62.3964610       2       8.3995180
4     ----- p-h potential -----
     71.9917160       2      10.6656820
    143.9718710       2       9.2837530
      4.9496150       2       6.8727490
      9.7404990       2       6.3261500
4     ----- d-h potential -----
     36.3783830       2       8.2148660
     54.5627150       2       8.0086960
      9.8894990       2       5.0552270
     14.6938770       2       4.7825530
4     ----- f-h potential -----
     17.4282950       2       5.0132700
     23.3803530       2       4.9846400
      0.1633920       2       1.3267600
      0.3245660       2       1.5287580
2     ----- g-h potential -----
    -11.5632940       2       6.7715260
    -14.5097880       2       6.7779250
H-ECP NONE
AT-ECP GEN    60    5
1     ----- h-ul potential -----
      0.0000000       2       1.0000000
3     ----- s-h potential -----
     49.9571580       2      30.2008320
    283.2103710       2      13.6123060
     62.2810520       2       8.5293400
4     ----- p-h potential -----
     71.9823710       2      10.8540650
    143.9035320       2       9.4682290
      4.8717590       2       7.0311140
      8.9830590       2       6.1438580
4     ----- d-h potential -----
     36.3632370       2       8.3135150
     54.5489700       2       7.9989650
      9.7762850       2       5.1799660
     14.2647550       2       4.9422260
4     ----- f-h potential -----
     19.8701980       2       5.8121630
     26.4164520       2       5.7537150
      0.9949700       2       2.5134720
      1.4907010       2       2.5362610
4     ----- g-h potential -----
    -22.2232030       2       9.8957780
    -26.7154760       2       9.7373340
     -0.3730440       2       3.0133310
     -0.4859460       2       3.0977630
H-ECP NONE
BI-ECP GEN    60    5
1     ----- h-ul potential -----
      0.0000000       2       1.0000000
2     ----- s-h potential -----
    283.2642270       2      13.0430900
     62.4719590       2       8.2216820
4     ----- p-h potential -----
     72.0014990       2      10.4677770
    144.0022770       2       9.1189010
      5.0079450       2       6.7547910
      9.9915500       2       6.2525920
4     ----- d-h potential -----
     36.3962590       2       8.0814740
     54.5976640       2       7.8905950
      9.9842940       2       4.9555560
     14.9814850       2       4.7045590
2     ----- f-h potential -----
     13.7133830       2       4.2145460
     18.1943080       2       4.1334000
2     ----- g-h potential -----
    -10.2474430       2       6.2057090
    -12.9557100       2       6.2277820
H-ECP NONE
H-ECP NONE
 $end
! TRAVIS-CI SMALL
