# ------------------------------------------------------------------------------
# 
# ORMAS-PT2 Multistate and $DETPT INTRNL=.T./.F. Test
#
# Formaldehyde - Computation of n(O[p]) -> pi* (Ground -> 1A2) excitation energy
# Ground state geometry has been optimized with MP2/CCT
#
# Experiment= 3.84 eV: Yeager & McKoy J Chem Phys V60 p2714 (1974)
#             3.79 eV: Walzl, Koerting & Kuppermann J Chem Phys V87 p3796 (1987)
#
# The state-averaged ORMAS-SCF/CCT reference approximates FORS(12,10) 
# (= full-valence CASSCF) by a MR-CISD (SOCI) scheme where (HOMO,LUMO) is the 
# MCSCF(2,2) sub-reference. We optimize the average energy of ground state and 
# next singlet excited state (n -> pi*).
#
# The ORMAS-PT2/CCT energyies can be computed two ways:
#
# 1) Without Internal (active -> active) PT2 contributions ($detpt intrnl=.f.)
#    ORMAS-PT2 energies = -114.311045587 & -114.169329653, DE = 3.86 eV
#
# IT IS IMPORTANT TO NOTE THAT BY CHANCE THE ORIGINAL ORMAS-PT2 IMPLEMENTATION 
# DID NOT INCLUDE INTERNAL PT2 CONTRIBUTIONS FOR MULTISTATE RUNS. IT IS THE 
# OPINION OF THE DEVELOPER OF THE ORMAS METHOD AND IMPLEMENTER OF THE DIRECT, 
# DETERMINANT-BASED PARALLEL MRMP2/MCQDPT CODES THAT INTERNAL (ACTIVE -> ACTIVE) 
# PT2 CONTRIBUTIONS SHOULD NOT BE INCLUDED FOR MULTISTATE RUNS. 
# GAMESS HAS, SINCE ORMAS-PT2 WAS IMPLEMENTED, NOT INCLUDED INTERNAL PT2 
# CONTRIBUTIONS FOR MULTISTATE RUNS.
#
# 2) With Internal (active -> active) PT2 contributions ($detpt intrnl=.t.)
#    ORMAS-PT2 energies = -114.316873407 & -114.173863455, DE = 3.89 eV
#
# ------------------------------------------------------------------------------
 $contrl scftyp=mcscf mplevl=2 exetyp=run runtyp=energy mult=1 ispher=1 $end
 $system mwords=100 memddi=100 $end
 $trans  dirtrf=.true. $end
 $basis  gbasis=cct $END
 $guess  guess=moread norb=88 $end
 $det    ncore=2 nels=12 nact=10 nstate=3 wstate(1)=1,1 $end
 $mcscf  soscf=.true. cistep=ormas $end
 $ormas  nspace=3 mstart(1)=3,8,10 mine(1)=8,0,0 maxe(1)=10,4,2 $end

 $data
 Formaldehyde
 C1
 C           6.0   0.6274388955   0.0000000291   0.0000000000
 O           8.0  -0.5830684524   0.0000000392  -0.0000000000
 H           1.0   1.2092415109  -0.9341496688  -0.0000000000
 H           1.0   1.2092415359   0.9341497106  -0.0000000000
 $END

--- OPTIMIZED MCSCF MO-S --- GENERATED AT 13:43:42 28-JUL-2022    
 Cyanine                                                                        
E(MCSCF)=     -114.0246480355, E(NUC)=       31.2258831955
 $VEC   
 1  1-2.16678469E-04 3.22394752E-04 5.35838324E-05-2.12659502E-03-1.72276840E-04
 1  2-1.95753677E-09 0.00000000E+00-3.14661066E-03 2.10594272E-08 0.00000000E+00
 1  3 7.18506997E-04 1.46127309E-08 0.00000000E+00 1.88717948E-04-1.31521797E-04
 1  4-5.71961510E-05 1.55272331E-09 0.00000000E+00 0.00000000E+00 6.27269117E-04
 1  5-9.81035292E-04 3.53766175E-04 2.86271442E-09 0.00000000E+00 0.00000000E+00
 1  6 5.83470121E-05-9.60603915E-10 0.00000000E+00 3.35435578E-09 0.00000000E+00
 1  7-2.21856679E-04 0.00000000E+00 1.43575948E-04-2.06431223E-09 0.00000000E+00
 1  8 9.74391912E-01-2.56927989E-02 3.72018584E-02-1.37155734E-02 7.46542338E-03
 1  9 0.00000000E+00 0.00000000E+00 4.65261620E-03-1.57307526E-09 0.00000000E+00
 1 10 5.61240674E-03-5.80922149E-09 0.00000000E+00 2.15797755E-04-1.21438558E-04
 1 11-9.43591973E-05 4.98998271E-10 0.00000000E+00 0.00000000E+00-4.38783202E-04
 1 12 2.60047055E-04 1.78736147E-04-3.99080778E-09 0.00000000E+00 0.00000000E+00
 1 13-1.18912590E-04 6.57405848E-10 0.00000000E+00-1.19393734E-09 0.00000000E+00
 1 14 7.32439017E-05 0.00000000E+00 8.62940797E-05 3.09486639E-10 0.00000000E+00
 1 15-1.40387030E-04 1.00575014E-03-4.10307834E-04-1.05286333E-05 1.01357853E-04
 1 16 0.00000000E+00-5.91102931E-04 2.77022722E-04 0.00000000E+00-4.13394333E-05
 1 17 2.42793325E-05 1.70601008E-05-5.89787456E-05-1.01556235E-11 0.00000000E+00
 1 18-1.40386466E-04 1.00571273E-03-4.10325374E-04-1.05292117E-05-1.01355960E-04
 1 19 0.00000000E+00-5.91089635E-04-2.77007482E-04 0.00000000E+00-4.13389954E-05
 1 20 2.42767291E-05 1.70622663E-05 5.89762868E-05 1.02306456E-11 0.00000000E+00
 2  1 9.78011820E-01-2.63004438E-03 4.09633139E-02 1.38432093E-03-1.78962431E-03
 2  2-7.48861231E-10 0.00000000E+00-2.12505919E-03 8.95371308E-09 0.00000000E+00
 2  3 1.01918425E-04 8.33008394E-09 0.00000000E+00 6.86873640E-04-5.26110375E-05
 2  4-6.34262602E-04 3.47761889E-10 0.00000000E+00 0.00000000E+00 6.06200106E-05
 2  5-1.91134852E-04 1.30514842E-04-4.18362360E-09 0.00000000E+00 0.00000000E+00
 2  6-6.94051738E-04-1.88677790E-09 0.00000000E+00 3.74821105E-09 0.00000000E+00
 2  7 8.08749184E-04 0.00000000E+00 1.22418935E-04-1.21879340E-09 0.00000000E+00
 2  8 2.36490634E-05-5.85973398E-03-1.18662588E-03-3.58205869E-03 1.93288808E-03
 2  9 5.33606893E-10 0.00000000E+00 1.44120670E-03-2.12185408E-09 0.00000000E+00
 2 10 1.84440570E-03-6.72696173E-09 0.00000000E+00-6.14932411E-06-1.95007403E-05
 2 11 2.56500645E-05 1.02963635E-09 0.00000000E+00 0.00000000E+00-3.22964777E-04
 2 12 2.36198200E-04 8.67665769E-05-5.84331462E-09 0.00000000E+00 0.00000000E+00
 2 13-7.17836360E-05 9.74903320E-10 0.00000000E+00-1.68318556E-09 0.00000000E+00
 2 14 9.02480864E-05 0.00000000E+00 6.05976747E-06 3.68545365E-10 0.00000000E+00
 2 15-1.04734691E-03-1.05372243E-03-1.06718684E-03 2.41907627E-04-3.69551077E-04
 2 16 0.00000000E+00-1.18233764E-04 1.38335886E-05 0.00000000E+00 7.23087714E-05
 2 17-1.28058174E-04 5.57494021E-05 2.45857643E-04 0.00000000E+00 0.00000000E+00
 2 18-1.04734621E-03-1.05373390E-03-1.06719636E-03 2.41906623E-04 3.69552361E-04
 2 19 0.00000000E+00-1.18227523E-04-1.38293883E-05 0.00000000E+00 7.23091750E-05
 2 20-1.28059830E-04 5.57506546E-05-2.45858273E-04 0.00000000E+00 0.00000000E+00
 3  1-5.38930897E-03 2.21687984E-01 4.86697590E-02 5.54169825E-02-9.70626545E-02
 3  2 9.64552513E-09 0.00000000E+00-7.50864954E-02 8.04444325E-08 0.00000000E+00
 3  3-2.75964656E-03 9.26058691E-08 0.00000000E+00 1.83879031E-02-6.74483111E-03
 3  4-1.16430719E-02 2.14346765E-09 0.00000000E+00-3.55521461E-10 1.63639912E-02
 3  5-1.38965325E-03-1.49743379E-02 2.65002776E-08 0.00000000E+00 1.59335196E-09
 3  6-8.98123440E-03 4.97332036E-09 0.00000000E+00-2.91613584E-09 0.00000000E+00
 3  7 9.42731501E-03 0.00000000E+00 2.62227538E-03-3.75624795E-09 2.69885770E-10
 3  8 2.72085354E-02 4.88694787E-01 1.29443134E-01 2.41506223E-01 6.48575399E-02
 3  9-1.01336539E-08 0.00000000E+00 8.09027447E-02-3.86961447E-09 0.00000000E+00
 3 10 3.79584886E-03-2.48039415E-08 0.00000000E+00 7.47376813E-03-3.68779030E-03
 3 11-3.78597783E-03-3.03265394E-10 0.00000000E+00 0.00000000E+00 1.58007573E-02
 3 12-8.31601133E-03-7.48474593E-03-3.03392252E-09 0.00000000E+00-2.90062133E-11
 3 13 4.56601393E-03 3.61139849E-10 0.00000000E+00-3.65224968E-10 0.00000000E+00
 3 14-2.93812943E-03 0.00000000E+00-3.18782108E-03-1.18326596E-10-4.84170585E-10
 3 15 1.22388026E-02-9.43265056E-03-3.33343202E-03-3.30554181E-04-5.36828071E-04
 3 16-1.03741111E-10 4.08740210E-03-9.86183612E-03 1.05235270E-09 8.61546959E-04
 3 17-1.52952359E-03 6.67976629E-04 1.03218789E-03-1.46366332E-10 1.49474745E-10
 3 18 1.22388057E-02-9.43281187E-03-3.33353991E-03-3.30554814E-04 5.36828756E-04
 3 19 1.04861425E-10 4.08745665E-03 9.86189441E-03-1.03949403E-09 8.61543898E-04
 3 20-1.52952516E-03 6.67981264E-04-1.03219813E-03 1.45938520E-10 1.48382702E-10
 4  1-6.40494615E-03 4.01482943E-01 8.86271760E-02 1.54382466E-01 5.93453071E-02
 4  2-3.89885688E-09 0.00000000E+00 7.42889602E-02 1.00696710E-07-1.02156664E-11
 4  3 4.34255994E-02 1.13923524E-07 0.00000000E+00 8.09918342E-04 8.29907637E-03
 4  4-9.10899472E-03 7.36190298E-09 0.00000000E+00 2.02279037E-11-4.48092277E-03
 4  5 1.26845770E-02-8.20365424E-03 2.16917333E-08-1.04929690E-11 1.08768222E-09
 4  6-3.94587526E-03-9.18281869E-10 0.00000000E+00 9.47577092E-09 0.00000000E+00
 4  7 6.20862112E-03 0.00000000E+00-9.14673933E-04-8.24242421E-09 7.71155205E-11
 4  8-1.99892036E-02-2.22916879E-01-6.32499373E-02-2.13961391E-01 1.34399240E-01
 4  9-8.95499018E-09 0.00000000E+00 1.59825010E-01-1.55999515E-08 0.00000000E+00
 4 10 8.40078453E-02-3.68572951E-08-1.00584319E-11 5.02489322E-03-2.38249398E-03
 4 11-2.64239924E-03 7.38061466E-10 0.00000000E+00 1.76358828E-10 9.93158971E-03
 4 12-5.61416872E-03-4.31742099E-03-1.42566940E-08 0.00000000E+00 0.00000000E+00
 4 13 1.67705634E-03 1.39746264E-09 0.00000000E+00-2.84271193E-09 0.00000000E+00
 4 14-9.32212064E-04 0.00000000E+00-1.31779513E-03 9.68579050E-10 2.88960212E-10
 4 15 9.83963758E-02 1.24219945E-01 1.62473006E-02-3.76933082E-03 8.26457206E-03
 4 16 8.23576776E-11-1.70942673E-03 4.97992804E-03 5.89903001E-10-2.35328076E-04
 4 17 1.23386126E-03-9.98533183E-04-1.17507145E-03-1.09153762E-10 1.32088770E-10
 4 18 9.83963823E-02 1.24219756E-01 1.62471553E-02-3.76933338E-03-8.26456712E-03
 4 19-8.14474367E-11-1.70935644E-03-4.97985133E-03-5.66737491E-10-2.35327383E-04
 4 20 1.23385265E-03-9.98525267E-04 1.17506089E-03 1.08399200E-10 1.29682668E-10
 5  1 2.83415297E-09 2.23000465E-09 6.46020622E-09 1.56906837E-07 7.50174937E-09
 5  2 2.31710963E-01 4.58647427E-08 8.04331580E-08 2.80596996E-01 6.19352334E-08
 5  3 4.61303241E-08 8.79922309E-02 2.80918767E-08-2.66881274E-09 2.10768621E-09
 5  4 5.55086204E-10 5.32508686E-03-5.64215756E-09 0.00000000E+00-3.66738859E-08
 5  5 5.76764960E-08-2.10026102E-08 5.38392079E-04-6.48686413E-09 0.00000000E+00
 5  6 5.00059685E-09-2.32376435E-03-1.81312862E-09 6.40112783E-03 2.07441093E-09
 5  7-2.61923102E-09 3.58156369E-10-4.08977367E-09-3.28347079E-03 0.00000000E+00
 5  8 1.69030925E-08 2.95664913E-08 7.07089042E-10 1.82860163E-08 2.62383360E-08
 5  9 1.38276834E-01 9.41914859E-08 5.03205312E-08 1.75817717E-01 1.23995976E-07
 5 10 1.51062127E-08 8.29754189E-02 7.83619710E-08 5.80482589E-10 6.97665088E-10
 5 11-1.27814768E-09 7.15907644E-03 2.87108903E-09 0.00000000E+00 7.26706270E-09
 5 12-9.34139274E-09 2.07451054E-09 1.61256670E-02 8.96732410E-09 0.00000000E+00
 5 13 6.61953093E-10-2.40242802E-03-1.36765276E-09 4.41655381E-03 2.18489979E-09
 5 14-1.53140162E-09-3.50001065E-10 6.43298349E-10-1.19335838E-03 0.00000000E+00
 5 15-1.25284436E-01-2.01296362E-01-7.38896941E-02 7.96055552E-03-7.55547851E-03
 5 16 7.69881771E-10 8.67454811E-03-9.41810098E-03-1.04996538E-10-9.03399024E-04
 5 17-7.92854453E-04 1.69625348E-03 3.78997112E-03 1.88843236E-10-2.94459387E-10
 5 18 1.25284432E-01 2.01296182E-01 7.38895853E-02-7.96055774E-03-7.55547894E-03
 5 19 7.69882277E-10-8.67448430E-03-9.41804748E-03-1.05000952E-10 9.03395507E-04
 5 20 7.92853775E-04-1.69624928E-03 3.78996539E-03 1.88843822E-10 2.94460054E-10
 6  1-1.07735545E-02-1.10867437E-02 2.53942446E-03-9.36275803E-02-2.17987526E-01
 6  2-3.23124463E-09 0.00000000E+00-2.22579907E-01 5.45217992E-08 0.00000000E+00
 6  3-2.33708777E-02 1.41008522E-07 0.00000000E+00 1.68102334E-02-1.36523590E-02
 6  4-3.15787440E-03 1.23572294E-09 0.00000000E+00-6.73448451E-10 7.01853265E-03
 6  5-7.07493635E-03 5.64036945E-05 9.60031865E-09 0.00000000E+00 1.23286585E-09
 6  6-4.41532543E-03 1.19524687E-09 0.00000000E+00 2.49987766E-09 0.00000000E+00
 6  7 3.01313770E-03 0.00000000E+00 2.91064297E-03-4.10171631E-09-1.52752345E-10
 6  8-2.36257915E-02-1.23498163E-01-3.79672259E-02-1.60603847E-01 2.79557206E-01
 6  9-9.07428562E-09 0.00000000E+00 3.45422674E-01-2.43052983E-09 0.00000000E+00
 6 10 2.09009542E-01-4.22966018E-08 0.00000000E+00 1.10909191E-02-5.72781540E-03
 6 11-5.36310374E-03-2.17338825E-10 0.00000000E+00 4.08468111E-11 2.94612115E-02
 6 12-1.49570752E-02-1.45041363E-02-8.58509773E-09 0.00000000E+00-3.20606953E-10
 6 13 5.70993776E-03 6.57091176E-10 0.00000000E+00-1.11180723E-09 0.00000000E+00
 6 14-3.71219613E-03 0.00000000E+00-3.94848926E-03 2.30379844E-10-1.99846836E-10
 6 15-7.46966494E-02-1.18688858E-01-4.08275870E-02 2.40772829E-03-7.35624118E-03
 6 16-1.41277893E-10-3.06211012E-04-1.41285811E-02 5.75231539E-10 1.92388206E-03
 6 17-2.76990086E-03 8.46018803E-04 1.42355818E-03 3.04795017E-11-1.82038416E-10
 6 18-7.46966634E-02-1.18689030E-01-4.08277849E-02 2.40772594E-03 7.35624338E-03
 6 19 1.41041868E-10-3.06156909E-04 1.41286262E-02-5.82883089E-10 1.92388089E-03
 6 20-2.76990347E-03 8.46022576E-04-1.42356450E-03-3.03013679E-11-1.81483191E-10
 7  1 0.00000000E+00-1.05764700E-11 0.00000000E+00-3.06508157E-11 0.00000000E+00
 7  2-1.07826362E-07 1.66753703E-01 2.94256098E-11-7.76616064E-08 2.21696943E-01
 7  3 2.07110674E-11-3.02610145E-08 1.17042883E-01 0.00000000E+00 0.00000000E+00
 7  4 0.00000000E+00-2.65113413E-08-1.90901645E-02 2.34307947E-09-1.00911173E-11
 7  5 0.00000000E+00 0.00000000E+00-7.74684836E-09-2.65363372E-02 1.17422784E-08
 7  6 0.00000000E+00-2.43720899E-09-6.03852989E-03 5.23920498E-09 9.61971795E-03
 7  7 0.00000000E+00-1.51817996E-03 0.00000000E+00-1.96934598E-09-1.45320560E-10
 7  8 0.00000000E+00 0.00000000E+00 0.00000000E+00 6.07520152E-11 0.00000000E+00
 7  9 2.22822911E-07 2.99436406E-01 0.00000000E+00 2.86687109E-07 3.85911506E-01
 7 10 2.19295399E-11 2.52729072E-07 2.46829310E-01 0.00000000E+00 0.00000000E+00
 7 11 0.00000000E+00 1.60905480E-09 9.46506353E-03 1.84626758E-10 0.00000000E+00
 7 12 0.00000000E+00 0.00000000E+00 1.12031000E-08 2.63484974E-02-5.65231434E-09
 7 13 0.00000000E+00-1.60675100E-10-3.65454363E-03 1.01218061E-09 6.10597458E-03
 7 14 0.00000000E+00-1.20288979E-03 0.00000000E+00-7.96612340E-10-1.03916290E-09
 7 15 1.16708129E-07 2.72764257E-07 1.21545832E-07-4.77331071E-09 6.61278112E-09
 7 16 3.02362119E-03-1.52792191E-08 2.68223660E-08 7.49663542E-03-4.18621056E-10
 7 17 2.49095248E-09-2.07233143E-09-3.55778456E-09-7.87020171E-04 9.97322606E-04
 7 18-1.16700898E-07-2.72752232E-07-1.21545868E-07 4.77300212E-09 6.61115619E-09
 7 19 3.02362240E-03 1.52769809E-08 2.68251295E-08 7.49662258E-03 4.19153428E-10
 7 20-2.49126904E-09 2.07211561E-09-3.55692379E-09-7.87017883E-04-9.97320429E-04
 8  1-6.39706515E-08-1.48316439E-07-1.10759029E-08-3.06604722E-07 3.06335270E-08
 8  2-6.50706823E-02-1.34353228E-07 1.22021392E-07-5.97315212E-02-1.79188695E-07
 8  3 6.73952440E-08 5.61235834E-03-9.76742928E-08-1.24554930E-08 4.89799850E-09
 8  4 7.55740554E-09-3.09981665E-02 1.47976442E-08 0.00000000E+00-6.86507430E-08
 8  5 3.99183175E-08 2.87324256E-08-2.40862362E-02 2.15606259E-08 0.00000000E+00
 8  6 1.18391133E-08-5.05920018E-03 5.13732023E-09 8.52054419E-03-7.45505182E-09
 8  7-1.30076239E-08 5.62613465E-10-2.87621342E-09-1.73291489E-03 0.00000000E+00
 8  8-2.64997401E-09 2.17219625E-08 8.39654555E-09 3.13212672E-07 2.64800204E-08
 8  9 3.42103311E-01-2.43346718E-07 8.15061805E-08 4.34209890E-01-3.14114261E-07
 8 10 1.22883516E-07 3.25957631E-01-1.96109619E-07-2.65844095E-09 2.07592533E-09
 8 11 5.82515615E-10 4.45564209E-03-7.54811038E-09 0.00000000E+00 3.44515991E-08
 8 12-2.01296341E-08-1.43216456E-08 1.63530508E-02-2.08092487E-08 0.00000000E+00
 8 13 5.47530269E-09-6.72721633E-04 3.34799602E-09 2.58319734E-03-4.92970256E-09
 8 14-4.35320252E-09 4.37894547E-10-2.99268689E-09-1.68064656E-03 0.00000000E+00
 8 15 8.81756239E-02 2.03561278E-01 1.34475433E-01-2.18274844E-03 4.72217920E-03
 8 16-2.80047481E-09-8.42526608E-03 1.44325866E-02-2.80604298E-09-1.04854768E-03
 8 17 1.80490573E-03-7.56358043E-04-1.11769885E-03 2.45594424E-10-7.69751053E-10
 8 18-8.81756208E-02-2.03561198E-01-1.34475301E-01 2.18274926E-03 4.72217921E-03
 8 19-2.80047587E-09 8.42525330E-03 1.44325229E-02-2.80603365E-09 1.04854319E-03
 8 20-1.80489482E-03 7.56351629E-04-1.11769147E-03 2.45592315E-10 7.69749448E-10
 9  1-4.98488551E-11-9.67100500E-11 0.00000000E+00-7.78127359E-10 0.00000000E+00
 9  2-1.64557968E-07 3.00010497E-01 1.91400279E-11-4.06982053E-07 4.59646241E-01
 9  3-4.30439725E-11-1.36264009E-07 3.88041689E-01 0.00000000E+00 0.00000000E+00
 9  4 0.00000000E+00 8.48193421E-09 1.29641534E-02-2.06353837E-09-6.50517474E-11
 9  5-3.39949651E-11 9.90467125E-11-5.15850270E-08 2.11510733E-02 8.12929714E-09
 9  6 1.59083462E-11 5.28661957E-09 2.00058802E-03-1.32324877E-08-3.38971403E-03
 9  7-1.99508997E-11 7.05643541E-04 0.00000000E+00 6.13974329E-09 1.18308620E-09
 9  8-1.02308353E-11-1.81420080E-11 0.00000000E+00 3.14475383E-10 0.00000000E+00
 9  9 1.30773046E-07-2.44418558E-01 3.96672918E-11 1.15451386E-07-3.03833428E-01
 9 10 1.21924497E-10-7.39120261E-08-3.06381314E-01 0.00000000E+00 0.00000000E+00
 9 11 0.00000000E+00-2.65359309E-09 4.49283367E-03 8.78821195E-10 2.33955060E-11
 9 12 0.00000000E+00-1.53566783E-11-1.49286387E-08 6.26025464E-03-3.91885235E-09
 9 13 0.00000000E+00 3.20914711E-09-2.05601282E-03-1.99077016E-09 1.12787053E-03
 9 14 0.00000000E+00 1.63056013E-03 0.00000000E+00-2.31475250E-09-1.13990161E-09
 9 15-9.51824501E-08-3.71294099E-07-8.45358017E-08-2.13074293E-09-1.37025083E-09
 9 16 6.69971198E-03 3.73713120E-08-7.46190903E-08 1.90141345E-02 2.72738111E-09
 9 17-5.26711413E-09 2.53973303E-09 3.51977050E-09-1.55091781E-03 2.67150549E-03
 9 18 9.51718251E-08 3.71606695E-07 8.49996105E-08 2.12981137E-09-1.36852778E-09
 9 19 6.69971317E-03-3.74510300E-08-7.47827283E-08 1.90141263E-02-2.72730698E-09
 9 20 5.27799922E-09-2.55069224E-09 3.52968684E-09-1.55091619E-03-2.67150397E-03
10  1 8.17781806E-02 7.29175495E-01 3.33120130E-01 1.94487970E-01 1.90412078E-01
10  2 2.35814970E-08 0.00000000E+00 2.55624256E-01-2.38502883E-08-1.76709866E-11
10  3 4.52901849E-02 3.40197455E-08 1.60718393E-11-2.20111632E-02-1.45553840E-02
10  4 3.65665472E-02 5.82331877E-09 0.00000000E+00 5.05418228E-09-6.00798242E-02
10  5 6.91963121E-04 5.93878611E-02-8.34771815E-08-1.01062679E-11-1.23470962E-08
10  6 8.03831626E-03-1.28889702E-08 0.00000000E+00 1.46292784E-08 0.00000000E+00
10  7-2.41794101E-02 0.00000000E+00 1.33948772E-02 2.66256334E-09 6.49271414E-10
10  8-6.85712695E-04-6.80066129E-02-2.12376378E-02-3.97816894E-03-1.26692140E-01
10  9 1.57683386E-08 0.00000000E+00-1.26923212E-01 1.16496269E-08 2.92402522E-11
10 10 1.14940056E-02-5.59047945E-08-5.67995780E-11-3.77966363E-03 2.43789727E-03
10 11 1.34176636E-03 3.43502798E-09 0.00000000E+00-3.32246699E-09-4.12320767E-03
10 12 4.50024622E-03-3.77038555E-04-2.97557255E-08 0.00000000E+00 2.16876901E-09
10 13 2.65312217E-04 5.79366316E-09 0.00000000E+00-6.93339077E-09 0.00000000E+00
10 14-2.46499016E-03 0.00000000E+00 2.10903647E-03-8.38776368E-10-3.68350289E-09
10 15-2.78196812E-01-5.18763252E-01-8.20328303E-02-6.82964515E-03 8.27587085E-03
10 16-3.12617610E-09-6.42893322E-03-1.96629296E-02-2.33080282E-08-1.55106755E-03
10 17 5.08394083E-03-3.53287328E-03-1.20535220E-02 5.34518239E-10-5.31332662E-09
10 18-2.78196805E-01-5.18763204E-01-8.20328862E-02-6.82964599E-03-8.27587629E-03
10 19 3.12384974E-09-6.42888504E-03 1.96629448E-02 2.33499682E-08-1.55106166E-03
10 20 5.08392620E-03-3.53286454E-03 1.20535343E-02-5.37373875E-10-5.32013492E-09
11  1 7.04509862E-08 1.52926650E-07 1.88307943E-08 7.67037260E-08 1.03926504E-08
11  2 4.07483481E-01 1.36993512E-07 3.82749331E-08 6.79325012E-01 1.87144297E-07
11  3-2.91270750E-08 2.74489475E-01 1.84378928E-07 5.40652142E-10 1.35681113E-09
11  4-1.89817724E-09-3.20591346E-02 3.68410611E-08 0.00000000E+00-5.17652814E-08
11  5 9.80987273E-08-4.63334459E-08-2.47886728E-02 6.15976170E-08 0.00000000E+00
11  6 2.25150979E-09-1.69412527E-02 2.94020857E-09 1.92575822E-02-5.75488414E-09
11  7 3.67047580E-09 1.81018040E-09-6.69119317E-09 3.47149342E-03 0.00000000E+00
11  8 2.83856136E-08 4.51023505E-08-3.70555230E-09-9.79573686E-08-1.74106618E-08
11  9-2.91999378E-01-5.52985554E-08-1.33560736E-08-2.62980249E-01-1.04644119E-07
11 10-5.36041707E-08 1.41457399E-01-2.23231042E-07-1.24891789E-09 2.88786064E-09
11 11-1.63894275E-09 8.14135674E-03-1.14085371E-09 0.00000000E+00-1.38873532E-08
11 12-8.85145303E-09 2.27382108E-08 3.40987850E-02-1.24151962E-08 0.00000000E+00
11 13-3.26589025E-10-7.52312392E-03-2.03316635E-09 7.37431847E-03-3.76439847E-09
11 14-6.07842563E-09 6.49217738E-09 6.51659078E-09 2.71901142E-03 0.00000000E+00
11 15 2.12993065E-01 5.69343868E-01 2.32827168E-01 9.94418563E-03-2.11373443E-03
11 16 6.01594643E-09-2.54964624E-02 5.22489399E-02 6.92360066E-09-3.20466127E-03
11 17 8.94889612E-04 2.30977166E-03 5.39567482E-03-5.30405175E-09 5.82235250E-09
11 18-2.12993028E-01-5.69344084E-01-2.32827175E-01-9.94418336E-03-2.11373526E-03
11 19 6.01594726E-09 2.54965689E-02 5.22490006E-02 6.92358791E-09 3.20465509E-03
11 20-8.94892308E-04-2.30976278E-03 5.39565882E-03-5.30405112E-09-5.82235300E-09
12  1-3.03593183E-02-2.99502131E-01-1.14649745E-01-1.50905608E-02 5.09796188E-01
12  2-3.42119292E-09 2.43589155E-11 7.34284042E-01 3.14481434E-08 4.13921689E-11
12  3 8.73474738E-02-3.89177831E-09 1.38891310E-10-2.84764548E-02 1.72505126E-02
12  4 1.12259421E-02 7.14361013E-09 0.00000000E+00 8.58852968E-09-7.78674558E-02
12  5 7.84034963E-02-5.36040477E-04 6.29335167E-08-3.89601146E-11 2.11111187E-08
12  6 5.21956156E-03 1.12242375E-08 0.00000000E+00-1.15355356E-08 0.00000000E+00
12  7-4.92930472E-03 0.00000000E+00-2.07347196E-03-3.51855433E-09-8.68901680E-09
12  8 5.70877508E-02 3.83301139E-01 1.59391542E-01 3.56175417E-01 4.52799703E-01
12  9-3.80750412E-08 0.00000000E+00 4.80917921E-01-4.58715351E-08 1.23166117E-11
12 10 5.69096629E-02 2.53740082E-08-1.11093737E-10-4.23658803E-03 8.48034256E-03
12 11-4.24375453E-03 2.73235024E-10 0.00000000E+00-4.15194112E-09-2.95376521E-02
12 12 1.96294182E-02 9.90823386E-03 4.21105137E-09 1.03016880E-11-7.34127345E-09
12 13-8.84907326E-03-2.40916760E-09 0.00000000E+00 1.11683194E-08 0.00000000E+00
12 14 7.30096630E-03 0.00000000E+00 4.57131131E-03-7.93738777E-09-4.44545956E-10
12 15-6.91024259E-02-2.16825659E-01-7.52444527E-03 1.03678314E-04 5.39347510E-03
12 16-8.02173713E-10 2.91513766E-02-2.62125957E-02-5.90343920E-09-1.59177735E-03
12 17 3.40489481E-03-1.81311746E-03-2.94771549E-03 3.47855627E-09-9.58874145E-10
12 18-6.91024156E-02-2.16825771E-01-7.52446210E-03 1.03683317E-04-5.39347672E-03
12 19 8.22206034E-10 2.91513721E-02 2.62126347E-02 5.63408895E-09-1.59176512E-03
12 20 3.40488513E-03-1.81312001E-03 2.94771522E-03-3.47788436E-09-9.54776347E-10
13  1 3.73296070E-03 4.55754632E-02 2.29342935E-03 2.32616841E+00-2.94389302E-02
13  2 6.88004234E-09 3.15451556E-11 2.82731442E-01-7.64583062E-08-3.45885303E-11
13  3 1.33116637E+00-6.97058808E-08 4.73697898E-11-4.64625527E-03 1.47996752E-02
13  4-1.01534199E-02-4.31611349E-09 0.00000000E+00-4.74914667E-10-9.20049808E-02
13  5 2.75280283E-01-1.83275303E-01-6.31554206E-08 2.10459446E-11-3.79191150E-09
13  6 6.08105591E-03-2.72610653E-09 1.50983515E-11-2.22429334E-09-2.27359607E-11
13  7 1.59014067E-02 0.00000000E+00-2.40599993E-02 5.88241863E-09 3.23534763E-10
13  8-1.30513982E-02 3.83620191E-02 1.28389047E-02 7.39700838E-01-2.92194332E-02
13  9 5.84464116E-09 0.00000000E+00 1.95801748E-02-8.52661938E-09 3.43873870E-11
13 10 1.36274696E-01-5.65973475E-09-6.36199491E-11 9.08330186E-04 6.41209051E-04
13 11-1.54953924E-03 2.08056768E-09 0.00000000E+00 7.06850728E-11 4.81682091E-02
13 12-3.20097371E-02-1.61584719E-02-1.55398557E-08 2.38192521E-11 1.62364601E-10
13 13 5.57424234E-03-1.39844503E-09 0.00000000E+00-3.77396401E-10 0.00000000E+00
13 14-4.49622875E-03 0.00000000E+00-2.98240213E-03 2.25428759E-09 8.71372409E-11
13 15 5.90611964E-02 1.47486194E-02-1.92060421E+00-3.21626764E-03 2.14867013E-02
13 16-3.37378858E-10 1.46356571E-01-2.99961175E-01 6.73127941E-09 1.07074650E-03
13 17-1.20157024E-02 1.09449559E-02 1.34258066E-02-9.07938601E-11 2.55677568E-10
13 18 5.90611996E-02 1.47488125E-02-1.92060420E+00-3.21627221E-03-2.14867066E-02
13 19 3.34898361E-10 1.46356568E-01 2.99961108E-01-6.70119100E-09 1.07074028E-03
13 20-1.20156955E-02 1.09449552E-02-1.34258056E-02 8.75686689E-11 2.47788054E-10
14  1-7.74455829E-08-8.55737628E-08 7.50892508E-08-3.86776028E-06-1.05740868E-07
14  2-3.35283070E-02 4.05597607E-09 6.66342650E-07 2.94518780E-02 7.06343742E-09
14  3 2.32279211E-06-1.09242859E+00 1.34621476E-08-1.36920734E-08-1.76093291E-09
14  4 1.54522913E-08-1.90041600E-02 1.94606800E-09 0.00000000E+00-6.95828302E-07
14  5 3.42493714E-07 3.53334589E-07 9.61909267E-02 1.30141969E-08 0.00000000E+00
14  6 8.50466261E-08 1.63199987E-03-2.83621101E-10 5.23814127E-03 6.13407680E-10
14  7-4.62008580E-08-2.32890042E-10-6.79011643E-08-7.42769886E-03 0.00000000E+00
14  8-7.46080272E-08-1.02755406E-08 7.26551879E-09 3.79058990E-06-8.73567655E-08
14  9-4.25936517E-02 4.30415766E-09 2.16465053E-07-1.02341311E-01 1.55882073E-08
14 10 1.27239970E-06 2.98762953E-01-3.81217324E-08-2.46613341E-09 1.90175417E-09
14 11 5.64379243E-10-4.57877081E-03 3.16313681E-11 0.00000000E+00 2.21416287E-07
14 12-1.18168305E-07-1.03248394E-07 4.02447532E-02-2.61233597E-09 0.00000000E+00
14 13 2.34917314E-08-8.63006611E-04 3.92501898E-11 8.94187598E-04-2.99794500E-10
14 14-1.53723572E-08 2.47134845E-10-1.61451079E-08 2.63657270E-04 0.00000000E+00
14 15 5.02117322E-02 6.80191584E-01-2.31030481E+00-2.27091301E-02 2.42152854E-02
14 16-1.30261468E-10 1.33392304E-01-4.89584355E-02 4.53257017E-09-6.42355575E-03
14 17 2.76741120E-03 3.65614455E-03 1.95652210E-03 0.00000000E+00 3.08174099E-10
14 18-5.02117886E-02-6.80192249E-01 2.31030630E+00 2.27091720E-02 2.42153038E-02
14 19-1.30261552E-10-1.33392307E-01-4.89586215E-02 4.53257312E-09 6.42355560E-03
14 20-2.76739836E-03-3.65615723E-03 1.95651085E-03 0.00000000E+00-3.08174655E-10
15  1-1.84420752E-02 9.38013833E-03 5.39706569E-02-2.41516230E+00-9.26980425E-02
15  2 2.14174075E-07 2.52645824E-11 4.51887413E-01-1.52723497E-06-2.73052493E-11
15  3 1.95856407E+00-1.63978051E-06-1.07146897E-10-4.14827008E-03-2.74310853E-03
15  4 6.89137861E-03-4.96120852E-08 0.00000000E+00-8.44562345E-11-5.25152161E-01
15  5 3.06904085E-01 2.18248076E-01-1.01940909E-06 1.38843857E-10-5.23756111E-09
15  6 5.61475179E-02-4.08222469E-08 1.15501008E-11-8.48058883E-08-1.46770019E-11
15  7-2.38327559E-02 0.00000000E+00-5.14970441E-02 1.39573226E-07 2.53286496E-10
15  8-4.16206212E-02 2.23574638E-02 6.31501363E-03 2.73237015E+00-7.02525162E-02
15  9 7.67286816E-08 0.00000000E+00 1.35468773E-01 9.64658825E-08 2.33326677E-11
15 10 8.64259128E-01 3.33004356E-08 1.36363332E-10 5.69699748E-04 6.79245919E-04
15 11-1.24894567E-03 1.39323548E-09-1.09988727E-11 6.74665602E-11 1.45934802E-01
15 12-8.19735525E-02-6.39612492E-02 3.53412814E-08 3.49086464E-11 3.34873981E-10
15 13 1.37498352E-02-1.27308024E-08 0.00000000E+00 2.15557298E-08 0.00000000E+00
15 14-9.56459314E-03 0.00000000E+00-8.88274659E-03-4.47534591E-09-2.16481191E-11
15 15-2.02540285E-02-4.31460308E-01 4.44004941E-01 1.48663683E-02-8.40238289E-03
15 16 0.00000000E+00 4.84097646E-02 2.83694207E-02-1.42539591E-09-2.00939512E-03
15 17 3.27578901E-03-1.26639389E-03 9.51646606E-03-9.87754926E-11-2.89327828E-10
15 18-2.02539982E-02-4.31454649E-01 4.44002802E-01 1.48663128E-02 8.40225578E-03
15 19 0.00000000E+00 4.84089636E-02-2.83708620E-02 1.36948375E-09-2.00943070E-03
15 20 3.27590760E-03-1.26647690E-03-9.51631337E-03 9.65457837E-11-2.77776844E-10
16  1 1.63388085E-11 2.20834062E-11 0.00000000E+00 6.69736193E-10 0.00000000E+00
16  2-2.58939556E-09-1.91175250E-01-5.80276300E-11 3.08918947E-08-7.91303386E-01
16  3 1.92326153E-10 1.36720221E-07 1.39188261E+00 0.00000000E+00 0.00000000E+00
16  4 0.00000000E+00 5.00491689E-10 8.26331423E-03-2.44671058E-09 2.26237120E-11
16  5 3.47393202E-11-5.73630322E-11 3.51200948E-08 3.46073665E-02 1.02509310E-08
16  6 0.00000000E+00 1.71043133E-09-6.73119582E-03 5.97959186E-10-5.11031672E-05
16  7 1.39573507E-11 9.08195002E-03 0.00000000E+00-2.89274362E-09 1.37986792E-09
16  8 0.00000000E+00 0.00000000E+00 0.00000000E+00-1.62660016E-10 0.00000000E+00
16  9-3.97062313E-09-2.41610412E-02-1.43935551E-11-2.61544999E-09-1.56119758E-02
16 10-1.26199182E-10-1.06398939E-08-1.64866971E-01 0.00000000E+00 0.00000000E+00
16 11 0.00000000E+00-2.49608504E-10-5.70551344E-03 1.53531398E-09-1.93062285E-11
16 12 0.00000000E+00 1.45984072E-11 1.40340878E-09-2.82525701E-02-5.55490574E-09
16 13 0.00000000E+00 0.00000000E+00 2.84485395E-04-6.16811178E-11-1.45142726E-04
16 14 0.00000000E+00-2.36534484E-04 0.00000000E+00 5.10623634E-11 1.30496607E-09
16 15-6.18700064E-10 6.67471049E-08 8.16357370E-08-1.17173060E-10 6.30434061E-10
16 16 1.31007206E-02-1.09961993E-08 2.13142093E-08-9.69595076E-02-3.88330756E-10
16 17 9.84320917E-10-5.95990162E-10-1.53478454E-09 6.79142213E-05 1.51618656E-04
16 18 6.19640204E-10-6.71047062E-08-8.19638482E-08 1.20271694E-10 6.32615369E-10
16 19 1.31007208E-02 1.10644487E-08 2.14020118E-08-9.69595147E-02 3.86431742E-10
16 20-9.87622933E-10 6.01191190E-10-1.54080845E-09 6.79153320E-05-1.51617428E-04
17  1 3.48191842E-07 2.29917428E-07-3.21232088E-07 2.19810076E-05-3.07341760E-07
17  2-1.86168841E-01 7.88791096E-09-8.39471553E-07 6.84324521E-01 2.80551271E-08
17  3 5.19157843E-06 4.21206848E+00-4.79599346E-08 1.21584733E-07-3.91224712E-08
17  4-8.24631026E-08 2.16053710E-02-1.05311544E-09 0.00000000E+00 3.83111683E-07
17  5 1.34154689E-06-1.72465857E-06 1.05897198E+00-8.91140943E-09 0.00000000E+00
17  6-2.71126206E-07 5.13205456E-02 4.07595120E-10 1.42687700E-02-4.40443655E-10
17  7 4.26497834E-07-1.06402582E-10-6.27438584E-08-8.31225071E-02 0.00000000E+00
17  8 1.37376026E-07 1.13344326E-07 2.64428695E-08-4.77069775E-06 8.58986629E-08
17  9-8.57585299E-02-4.14957603E-09-2.39658142E-07-3.30306146E-02-1.25368412E-08
17 10-3.46154965E-06-3.24886458E-01 2.49612495E-08 3.85964987E-08-5.58490312E-09
17 11-3.30115956E-08-9.04619220E-03 2.85593776E-10 0.00000000E+00-4.83591043E-07
17 12 9.95717345E-08 3.84018812E-07 2.31152241E-02 2.63696337E-09 0.00000000E+00
17 13-6.26583975E-08 1.40920677E-03-8.78677575E-11-3.90086848E-03 1.85574793E-10
17 14 3.33797802E-08-6.76878252E-11 5.06852815E-08 2.01021920E-03 0.00000000E+00
17 15-3.79097320E-02 1.78073461E+00 2.65059182E+00-3.21009892E-03 1.70543009E-02
17 16-2.87119262E-10-3.81016114E-01 6.54753382E-01 7.00935169E-10-1.10626601E-02
17 17 2.87510360E-02-1.76883759E-02-4.42199915E-02-6.40608140E-11-1.60719860E-10
17 18 3.79098661E-02-1.78074568E+00-2.65060334E+00 3.21014490E-03 1.70543820E-02
17 19-2.87116989E-10 3.81018818E-01 6.54756477E-01 7.00898834E-10 1.10626051E-02