!   LiF...ORMAS + PT2 test case...from Luke...created in 2012
!   unknown basis set...90 AOs
!
!     TOTAL   (MCSCF)          0TH + 1ST ORDER ENERGY  =  -106.901381307
!     TOTAL MRPT2, E(MP2) 0TH + 1ST + 2ND ORDER ENERGY =  -107.0516980661
!
!   this test takes 14 seconds on 2.66 GHz Cloverton (31 July 2012)
!
!   -----------------------------------------------------------------------
!   breakdown of the correlation energy:
!                                            V -> A    -0.011799452
!                                            V -> E    -0.032730839
!                                            A -> E    -0.019134006
!                                           VV -> AA   -0.002487023
!                                           VV -> AE   -0.000930976
!          (2 ELECTRONS ARE DIFFERENT SPIN) VA -> AE   -0.016950051
!                                           VV -> EE   -0.007198037
!                                           VA -> EE   -0.016509765
!                                           AA -> EE   -0.042032179
!                                      INTERNAL CCAS   -0.000544432
!
!   by the way, running with a CAS reference gives
!        TOTAL   (MC-SCF)         0TH + 1ST ORDER ENERGY  =  -106.902096329
!        TOTAL MRPT2, E-MP2  0TH + 1ST + 2ND ORDER ENERGY =  -107.0518596866
!
 $contrl scftyp=mcscf mplevl=2 runtyp=energy units=bohr $end
 $system mwords=1 memddi=10 parall=.t. $end
 $scf    dirscf=.t. $end
 $trans  dirtrf=.t. $end
 $mcscf  cistep=ormas fullnr=.true. soscf=.false. engtol=1e-8 $end
 $det    ncore=3 nact=9 nels=6 nstate=10 $end
 $ORMAS  nspace=3 mstart(1)=4 7 10 mine(1)=2 2 2 maxe(1)=2 2 2 $end
 $guess  guess=moread norb=90 $end
 $data
lif_2-state.ormas-gen.inp...not the same basis as the CAS-MCQDPT run!
Cnv 2

Li 3.0 0 0 14.0
S   6
  1    900.4600000              0.00228704
  2    134.4330000              0.0176350
  3     30.4365000              0.0873434
  4      8.6263900              0.2809770
  5      2.4833200              0.6587410
  6      0.3031790              0.1187120
L   3
  1      4.8689000              0.0933293              0.0327661
  2      0.8569240              0.9430450              0.1597920
  3      0.2432270             -0.00279827             0.8856670
L   1
  1      0.0635070              1.0000000              1.0000000
L   1
  1      0.0243683              1.0000000              1.0000000
L   1
  1      0.0074000              1.0000000              1.0000000
D   1
  1      0.8000000              1.0000000
D   1
  1      0.2000000              1.0000000
D   1
  1      0.0500000              1.0000000
F   1
  1      0.1500000              1.0000000

F 9.0 0 0 0
S   6
  1  11427.1000000              0.00180093
  2   1722.3500000              0.0137419
  3    395.7460000              0.0681334
  4    115.1390000              0.2333250
  5     33.6026000              0.5890860
  6      4.9190100              0.2995050
L   3
  1     55.4441000              0.1145360              0.0354609
  2     12.6323000              0.9205120              0.2374510
  3      3.7175600             -0.00337804             0.8204580
L   1
  1      1.1654500              1.0000000              1.0000000
L   1
  1      0.3218920              1.0000000              1.0000000
L   1
  1      0.1076000              1.0000000              1.0000000
D   1
  1      7.0000000              1.0000000
D   1
  1      1.7500000              1.0000000
D   1
  1      0.4375000              1.0000000
F   1
  1      1.8500000              1.0000000

$END
--- OPTIMIZED MCSCF MO-S --- GENERATED AT 16:38:07 10-MAR-2023
lif_2-state.ormas-gen.inp...not the same basis as the CAS-MCQDPT run!
E(MCSCF)=     -106.9013813379, E(NUC)=        1.9285714286
 $VEC
 1  1 8.91587719E-08-9.80410288E-08 0.00000000E+00 0.00000000E+00-1.13448245E-07
 1  2 6.86553297E-06 0.00000000E+00 0.00000000E+00 1.10673752E-06-1.53815891E-05
 1  3 0.00000000E+00 0.00000000E+00 4.07015868E-06 9.55059043E-06 0.00000000E+00
 1  4 0.00000000E+00-9.65685503E-06-2.16275225E-07-2.16275458E-07 6.15421403E-08
 1  5 0.00000000E+00 0.00000000E+00 0.00000000E+00-2.81093933E-07-2.81121090E-07
 1  6-1.18231985E-06 0.00000000E+00 0.00000000E+00 0.00000000E+00 8.40416043E-07
 1  7 8.40415052E-07 2.56688927E-06 0.00000000E+00 0.00000000E+00 0.00000000E+00
 1  8 0.00000000E+00 0.00000000E+00-1.03953743E-06 0.00000000E+00-4.50129215E-07
 1  9 0.00000000E+00-4.50144837E-07 0.00000000E+00 0.00000000E+00 0.00000000E+00
 1 10 5.47571017E-01 4.74357671E-01 0.00000000E+00 0.00000000E+00 2.52750783E-07
 1 11 2.61826468E-03 0.00000000E+00 0.00000000E+00-9.19344128E-07-4.40490510E-03
 1 12 0.00000000E+00 0.00000000E+00 7.08145000E-07-9.65304681E-05 0.00000000E+00
 1 13 0.00000000E+00-1.07108910E-06 7.94447128E-04 7.94447128E-04 9.64637038E-04
 1 14 0.00000000E+00 0.00000000E+00 0.00000000E+00 1.91906330E-03 1.91906330E-03
 1 15 1.39401963E-03 0.00000000E+00 0.00000000E+00 0.00000000E+00 1.33800588E-03
 1 16 1.33800588E-03 1.31682559E-03 0.00000000E+00 0.00000000E+00 0.00000000E+00
 1 17 0.00000000E+00 0.00000000E+00 3.39906945E-07 0.00000000E+00 1.50389782E-07
 1 18 0.00000000E+00 1.50389775E-07 0.00000000E+00 0.00000000E+00 0.00000000E+00
 2  1 6.17170855E-01 4.29763157E-01-0.00000000E+00-0.00000000E+00 1.57617978E-05
 2  2 2.40983247E-03-0.00000000E+00-0.00000000E+00 3.01822348E-05 4.54286138E-03
 2  3-0.00000000E+00-0.00000000E+00-1.40591866E-05-4.58743813E-04-0.00000000E+00
 2  4-0.00000000E+00 2.17610478E-06-7.30990127E-04-7.30990127E-04-7.30731341E-04
 2  5-0.00000000E+00-0.00000000E+00-0.00000000E+00-1.67025906E-03-1.67025906E-03
 2  6-1.67080738E-03-0.00000000E+00-0.00000000E+00-0.00000000E+00-1.72629384E-03
 2  7-1.72629384E-03-1.72412513E-03-0.00000000E+00-0.00000000E+00-0.00000000E+00
 2  8-0.00000000E+00-0.00000000E+00-1.86166789E-05-0.00000000E+00-8.22695970E-06
 2  9-0.00000000E+00-8.22695960E-06-0.00000000E+00-0.00000000E+00-0.00000000E+00
 2 10-1.00890809E-08 5.19910351E-07-0.00000000E+00-0.00000000E+00 5.45827576E-06
 2 11 1.09151456E-06-0.00000000E+00-0.00000000E+00-4.73475690E-07-7.58702136E-06
 2 12-0.00000000E+00-0.00000000E+00 2.46809167E-05-1.91127580E-06-0.00000000E+00
 2 13-0.00000000E+00-3.39252594E-05 3.62438897E-07 3.62417493E-07 2.17028191E-07
 2 14-0.00000000E+00-0.00000000E+00-0.00000000E+00 8.76035311E-07 8.76037700E-07
 2 15 1.84264689E-06-0.00000000E+00-0.00000000E+00-0.00000000E+00 5.32217059E-06
 2 16 5.32217021E-06 1.47681245E-06-0.00000000E+00-0.00000000E+00-0.00000000E+00
 2 17-0.00000000E+00-0.00000000E+00 9.80813484E-07-0.00000000E+00 3.92308582E-07
 2 18-0.00000000E+00 3.92325319E-07-0.00000000E+00-0.00000000E+00-0.00000000E+00
 3  1 2.65714945E-06 2.64698492E-05-0.00000000E+00-0.00000000E+00 3.12932890E-05
 3  2 1.79806093E-04-0.00000000E+00-0.00000000E+00-2.69161104E-04-9.18979636E-04
 3  3-0.00000000E+00-0.00000000E+00 2.61956446E-04 2.66902535E-04-0.00000000E+00
 3  4-0.00000000E+00-2.37476144E-04 1.32080145E-05 1.32080144E-05 1.25704276E-05
 3  5-0.00000000E+00-0.00000000E+00-0.00000000E+00 4.73536266E-05 4.73536261E-05
 3  6 5.03570194E-05-0.00000000E+00-0.00000000E+00-0.00000000E+00 2.15193002E-04
 3  7 2.15193002E-04 2.10661868E-04-0.00000000E+00-0.00000000E+00-0.00000000E+00
 3  8-0.00000000E+00-0.00000000E+00 8.28285766E-05-0.00000000E+00 3.72615816E-05
 3  9-0.00000000E+00 3.72615817E-05-0.00000000E+00-0.00000000E+00-0.00000000E+00
 3 10-1.25678504E-01-2.35576658E-01-0.00000000E+00-0.00000000E+00-3.06450853E-06
 3 11 6.67810513E-01-0.00000000E+00-0.00000000E+00-2.79043329E-06 7.08855718E-01
 3 12-0.00000000E+00-0.00000000E+00-8.77165626E-06 1.18714735E-02-0.00000000E+00
 3 13-0.00000000E+00 4.01250453E-06-1.42473581E-02-1.42473581E-02-1.51747404E-02
 3 14-0.00000000E+00-0.00000000E+00-0.00000000E+00-4.87493367E-02-4.87493367E-02
 3 15-4.90040798E-02-0.00000000E+00-0.00000000E+00-0.00000000E+00-7.77519966E-02
 3 16-7.77519966E-02-8.29345675E-02-0.00000000E+00-0.00000000E+00-0.00000000E+00
 3 17-0.00000000E+00-0.00000000E+00-3.63577808E-07-0.00000000E+00-1.31235105E-07
 3 18-0.00000000E+00-1.31235158E-07-0.00000000E+00-0.00000000E+00-0.00000000E+00
 4  1-2.65245900E-04-1.26765758E-03 0.00000000E+00 0.00000000E+00-7.82272590E-04
 4  2 1.97669258E-03 0.00000000E+00 0.00000000E+00 6.57498155E-03 1.51825335E-02
 4  3 0.00000000E+00 0.00000000E+00-3.94356367E-03-1.12096520E-03 0.00000000E+00
 4  4 0.00000000E+00 5.36659955E-04-4.54447275E-04-4.54447274E-04-4.18332823E-04
 4  5 0.00000000E+00 0.00000000E+00 0.00000000E+00-1.68400074E-03-1.68400074E-03
 4  6-1.88643080E-03 0.00000000E+00 0.00000000E+00 0.00000000E+00-4.91214308E-03
 4  7-4.91214308E-03-4.35905871E-03 0.00000000E+00 0.00000000E+00 0.00000000E+00
 4  8 0.00000000E+00 0.00000000E+00-2.36441815E-03 0.00000000E+00-1.05348741E-03
 4  9 0.00000000E+00-1.05348742E-03 0.00000000E+00 0.00000000E+00 0.00000000E+00
 4 10-3.12969083E-06 8.95182283E-06 0.00000000E+00 0.00000000E+00 2.91870623E-01
 4 11 6.11233798E-05 0.00000000E+00 0.00000000E+00 4.78098121E-01-1.79686166E-04
 4 12 0.00000000E+00 0.00000000E+00 4.30177771E-01-2.70155226E-04 0.00000000E+00
 4 13 0.00000000E+00 2.68072456E-02 8.50342390E-06 8.50342385E-06 7.96270613E-06
 4 14 0.00000000E+00 0.00000000E+00 0.00000000E+00 3.19764088E-05 3.19764085E-05
 4 15 3.50451349E-05 0.00000000E+00 0.00000000E+00 0.00000000E+00 1.38294802E-04
 4 16 1.38294795E-04 1.18442200E-04 0.00000000E+00 0.00000000E+00 0.00000000E+00
 4 17 0.00000000E+00 0.00000000E+00 1.08352531E-02 0.00000000E+00-4.29228143E-03
 4 18 0.00000000E+00-4.29228143E-03 0.00000000E+00 0.00000000E+00 0.00000000E+00
 5  1-9.74108836E-02-1.48620893E-01 0.00000000E+00 0.00000000E+00-3.48257048E-04
 5  2 6.21979516E-01 0.00000000E+00 0.00000000E+00-5.35618574E-04 2.85864147E-01
 5  3 0.00000000E+00 0.00000000E+00-1.40399855E-03 1.18975688E-02 0.00000000E+00
 5  4 0.00000000E+00 1.30815846E-04 1.68578750E-03 1.68578750E-03 1.69452373E-03
 5  5 0.00000000E+00 0.00000000E+00 0.00000000E+00 3.57049785E-02 3.57049785E-02
 5  6 3.56718624E-02 0.00000000E+00 0.00000000E+00 0.00000000E+00 4.23026493E-02
 5  7 4.23026493E-02 4.30833227E-02 0.00000000E+00 0.00000000E+00 0.00000000E+00
 5  8 0.00000000E+00 0.00000000E+00-1.90284454E-04 0.00000000E+00-4.14751709E-05
 5  9 0.00000000E+00-4.14757646E-05 0.00000000E+00 0.00000000E+00 0.00000000E+00
 5 10 8.37098675E-05 1.55486715E-04 0.00000000E+00 0.00000000E+00-1.15853088E-03
 5 11-4.96283517E-04 0.00000000E+00 0.00000000E+00-2.43117291E-03-7.40387805E-04
 5 12 0.00000000E+00 0.00000000E+00-2.26666302E-03-2.98252992E-04 0.00000000E+00
 5 13 0.00000000E+00 2.08295560E-03 5.18000685E-06 5.18000684E-06 1.12719156E-05
 5 14 0.00000000E+00 0.00000000E+00 0.00000000E+00 1.63257830E-05 1.63257829E-05
 5 15 3.76292721E-05 0.00000000E+00 0.00000000E+00 0.00000000E+00-3.53147879E-06
 5 16-3.53251021E-06 6.60320231E-05 0.00000000E+00 0.00000000E+00 0.00000000E+00
 5 17 0.00000000E+00 0.00000000E+00-1.61269315E-04 0.00000000E+00 6.46738992E-05
 5 18 0.00000000E+00 6.46738993E-05 0.00000000E+00 0.00000000E+00 0.00000000E+00
 6  1 3.17876174E-04-1.50559847E-03 0.00000000E+00 0.00000000E+00-1.70353556E-03
 6  2-8.43308372E-04 0.00000000E+00 0.00000000E+00 1.43576025E-02 3.10505843E-02
 6  3 0.00000000E+00 0.00000000E+00-8.52735141E-03-2.52446881E-03 0.00000000E+00
 6  4 0.00000000E+00 1.09034282E-03-1.04130226E-03-1.04130226E-03-9.73982143E-04
 6  5 0.00000000E+00 0.00000000E+00 0.00000000E+00-4.19428684E-03-4.19428685E-03
 6  6-4.59381946E-03 0.00000000E+00 0.00000000E+00 0.00000000E+00-1.13365854E-02
 6  7-1.13365854E-02-1.02126359E-02 0.00000000E+00 0.00000000E+00 0.00000000E+00
 6  8 0.00000000E+00 0.00000000E+00-5.17437961E-03 0.00000000E+00-2.30732317E-03
 6  9 0.00000000E+00-2.30732317E-03 0.00000000E+00 0.00000000E+00 0.00000000E+00
 6 10-3.95027449E-06 2.63032124E-05 0.00000000E+00 0.00000000E+00-6.07184671E-01
 6 11 1.09384399E-04 0.00000000E+00 0.00000000E+00-5.00737218E-01-3.90554277E-04
 6 12 0.00000000E+00 0.00000000E+00 8.38445870E-01-6.16726686E-04 0.00000000E+00
 6 13 0.00000000E+00 6.64012008E-02 2.06397798E-05 2.06397801E-05 1.57639851E-05
 6 14 0.00000000E+00 0.00000000E+00 0.00000000E+00 8.05699717E-05 8.05699685E-05
 6 15 6.60238075E-05 0.00000000E+00 0.00000000E+00 0.00000000E+00 3.12084487E-04
 6 16 3.12084511E-04 2.60692859E-04 0.00000000E+00 0.00000000E+00 0.00000000E+00
 6 17 0.00000000E+00 0.00000000E+00 1.39006006E-01 0.00000000E+00 5.02796642E-02
 6 18 0.00000000E+00 5.02796642E-02 0.00000000E+00 0.00000000E+00 0.00000000E+00
 7  1 0.00000000E+00 0.00000000E+00 0.00000000E+00-2.21136122E-05 0.00000000E+00
 7  2 0.00000000E+00 0.00000000E+00 2.01258063E-04 0.00000000E+00 0.00000000E+00
 7  3 0.00000000E+00-3.79899401E-04 0.00000000E+00 0.00000000E+00 0.00000000E+00
 7  4 5.92742309E-04 0.00000000E+00 0.00000000E+00 0.00000000E+00 0.00000000E+00
 7  5 0.00000000E+00 0.00000000E+00-2.98393519E-06 0.00000000E+00 0.00000000E+00
 7  6 0.00000000E+00 0.00000000E+00 0.00000000E+00 1.71593769E-05 0.00000000E+00
 7  7 0.00000000E+00 0.00000000E+00 0.00000000E+00 0.00000000E+00-5.12733416E-05
 7  8 0.00000000E+00-4.34271601E-05 0.00000000E+00-1.94200555E-05 0.00000000E+00
 7  9 0.00000000E+00 0.00000000E+00 0.00000000E+00-1.72873054E-05 0.00000000E+00
 7 10 0.00000000E+00 0.00000000E+00 0.00000000E+00 3.20973189E-01 0.00000000E+00
 7 11 0.00000000E+00 0.00000000E+00 4.79443277E-01 0.00000000E+00 0.00000000E+00
 7 12 0.00000000E+00 3.97794894E-01 0.00000000E+00 0.00000000E+00 0.00000000E+00
 7 13 4.92993160E-02 0.00000000E+00 0.00000000E+00 0.00000000E+00 0.00000000E+00
 7 14 0.00000000E+00 0.00000000E+00-3.87155465E-08 0.00000000E+00 0.00000000E+00
 7 15 0.00000000E+00 0.00000000E+00 0.00000000E+00-6.78261281E-08 0.00000000E+00
 7 16 0.00000000E+00 0.00000000E+00 0.00000000E+00 0.00000000E+00-2.89731544E-06
 7 17 0.00000000E+00-3.64201833E-03 0.00000000E+00-1.64794502E-03 0.00000000E+00
 7 18 0.00000000E+00 0.00000000E+00 0.00000000E+00 3.21484737E-03 0.00000000E+00
 8  1-0.00000000E+00-0.00000000E+00-0.00000000E+00-2.58292814E-05-0.00000000E+00
 8  2-0.00000000E+00-0.00000000E+00 2.45976255E-04-0.00000000E+00-0.00000000E+00
 8  3-0.00000000E+00-8.31916086E-05-0.00000000E+00-0.00000000E+00-0.00000000E+00
 8  4-4.20688449E-05-0.00000000E+00-0.00000000E+00-0.00000000E+00-0.00000000E+00
 8  5-0.00000000E+00-0.00000000E+00-1.36474813E-06-0.00000000E+00-0.00000000E+00
 8  6-0.00000000E+00-0.00000000E+00-0.00000000E+00 5.87350130E-06-0.00000000E+00
 8  7-0.00000000E+00-0.00000000E+00-0.00000000E+00-0.00000000E+00-1.34957706E-05
 8  8-0.00000000E+00-1.05753275E-04-0.00000000E+00-4.72943298E-05-0.00000000E+00
 8  9-0.00000000E+00-0.00000000E+00-0.00000000E+00-4.65990632E-05-0.00000000E+00
 8 10-0.00000000E+00-0.00000000E+00-0.00000000E+00 3.23427879E-05-0.00000000E+00
 8 11-0.00000000E+00-0.00000000E+00-1.49456700E-05-0.00000000E+00-0.00000000E+00
 8 12-0.00000000E+00-1.46506766E-05-0.00000000E+00-0.00000000E+00-0.00000000E+00
 8 13 1.24013793E-05-0.00000000E+00-0.00000000E+00-0.00000000E+00-0.00000000E+00
 8 14-0.00000000E+00-0.00000000E+00 1.06146202E-01-0.00000000E+00-0.00000000E+00
 8 15-0.00000000E+00-0.00000000E+00-0.00000000E+00 7.10243804E-01-0.00000000E+00
 8 16-0.00000000E+00-0.00000000E+00-0.00000000E+00-0.00000000E+00 3.92431496E-01
 8 17-0.00000000E+00-2.35656347E-06-0.00000000E+00-7.84802672E-08-0.00000000E+00
 8 18-0.00000000E+00-0.00000000E+00-0.00000000E+00 2.70518566E-06-0.00000000E+00
 9  1-0.00000000E+00-0.00000000E+00-0.00000000E+00-7.02678168E-05-0.00000000E+00
 9  2-0.00000000E+00-0.00000000E+00 6.33767011E-04-0.00000000E+00-0.00000000E+00
 9  3-0.00000000E+00-1.05701920E-03-0.00000000E+00-0.00000000E+00-0.00000000E+00
 9  4 1.56035971E-03-0.00000000E+00-0.00000000E+00-0.00000000E+00-0.00000000E+00
 9  5-0.00000000E+00-0.00000000E+00-7.32123146E-06-0.00000000E+00-0.00000000E+00
 9  6-0.00000000E+00-0.00000000E+00-0.00000000E+00 4.18604222E-05-0.00000000E+00
 9  7-0.00000000E+00-0.00000000E+00-0.00000000E+00-0.00000000E+00-1.25948224E-04
 9  8-0.00000000E+00-1.52209344E-04-0.00000000E+00-6.80255895E-05-0.00000000E+00
 9  9-0.00000000E+00-0.00000000E+00-0.00000000E+00-6.25776996E-05-0.00000000E+00
 9 10-0.00000000E+00-0.00000000E+00-0.00000000E+00-5.56584490E-01-0.00000000E+00
 9 11-0.00000000E+00-0.00000000E+00-5.53648991E-01-0.00000000E+00-0.00000000E+00
 9 12-0.00000000E+00 8.31813850E-01-0.00000000E+00-0.00000000E+00-0.00000000E+00
 9 13 1.18909234E-01-0.00000000E+00-0.00000000E+00-0.00000000E+00-0.00000000E+00
 9 14-0.00000000E+00-0.00000000E+00 1.59100721E-06-0.00000000E+00-0.00000000E+00
 9 15-0.00000000E+00-0.00000000E+00-0.00000000E+00 1.49475321E-05-0.00000000E+00
 9 16-0.00000000E+00-0.00000000E+00-0.00000000E+00-0.00000000E+00 6.92559213E-06
 9 17-0.00000000E+00 1.45184690E-01-0.00000000E+00 6.63621772E-02-0.00000000E+00
 9 18-0.00000000E+00-0.00000000E+00-0.00000000E+00 6.34840398E-02-0.00000000E+00
10  1 0.00000000E+00 0.00000000E+00-2.21124138E-05 0.00000000E+00 0.00000000E+00
10  2 0.00000000E+00 2.01256985E-04 0.00000000E+00 0.00000000E+00 0.00000000E+00
10  3-3.79889578E-04 0.00000000E+00 0.00000000E+00 0.00000000E+00 5.92729234E-04
10  4 0.00000000E+00 0.00000000E+00 0.00000000E+00 0.00000000E+00 0.00000000E+00
10  5 0.00000000E+00-2.98393374E-06 0.00000000E+00 0.00000000E+00 0.00000000E+00
10  6 0.00000000E+00 0.00000000E+00 1.71593751E-05 0.00000000E+00 0.00000000E+00
10  7 0.00000000E+00 0.00000000E+00 0.00000000E+00-5.12733160E-05 0.00000000E+00
10  8-4.34259642E-05 0.00000000E+00 0.00000000E+00 0.00000000E+00 0.00000000E+00
10  9-1.94197999E-05 0.00000000E+00-1.72868350E-05 0.00000000E+00 0.00000000E+00
10 10 0.00000000E+00 0.00000000E+00 3.20973191E-01 0.00000000E+00 0.00000000E+00
10 11 0.00000000E+00 4.79443272E-01 0.00000000E+00 0.00000000E+00 0.00000000E+00
10 12 3.97794897E-01 0.00000000E+00 0.00000000E+00 0.00000000E+00 4.92993177E-02
10 13 0.00000000E+00 0.00000000E+00 0.00000000E+00 0.00000000E+00 0.00000000E+00
10 14 0.00000000E+00-3.79518177E-08 0.00000000E+00 0.00000000E+00 0.00000000E+00
10 15 0.00000000E+00 0.00000000E+00-6.65660557E-08 0.00000000E+00 0.00000000E+00
10 16 0.00000000E+00 0.00000000E+00 0.00000000E+00-2.90281722E-06 0.00000000E+00
10 17-3.64201348E-03 0.00000000E+00 0.00000000E+00 0.00000000E+00 0.00000000E+00
10 18-1.64795061E-03 0.00000000E+00 3.21484721E-03 0.00000000E+00 0.00000000E+00
11  1-0.00000000E+00-0.00000000E+00-2.58236199E-05-0.00000000E+00-0.00000000E+00
11  2-0.00000000E+00 2.45926285E-04-0.00000000E+00-0.00000000E+00-0.00000000E+00
11  3-8.31061830E-05-0.00000000E+00-0.00000000E+00-0.00000000E+00-4.21414754E-05
11  4-0.00000000E+00-0.00000000E+00-0.00000000E+00-0.00000000E+00-0.00000000E+00
11  5-0.00000000E+00-1.36466122E-06-0.00000000E+00-0.00000000E+00-0.00000000E+00
11  6-0.00000000E+00-0.00000000E+00 5.87325519E-06-0.00000000E+00-0.00000000E+00
11  7-0.00000000E+00-0.00000000E+00-0.00000000E+00-1.34896026E-05-0.00000000E+00
11  8-1.05743917E-04-0.00000000E+00-0.00000000E+00-0.00000000E+00-0.00000000E+00
11  9-4.72844926E-05-0.00000000E+00-4.65933809E-05-0.00000000E+00-0.00000000E+00
11 10-0.00000000E+00-0.00000000E+00 3.22876968E-05-0.00000000E+00-0.00000000E+00
11 11-0.00000000E+00-1.48838639E-05-0.00000000E+00-0.00000000E+00-0.00000000E+00
11 12-1.46835411E-05-0.00000000E+00-0.00000000E+00-0.00000000E+00 1.23965858E-05
11 13-0.00000000E+00-0.00000000E+00-0.00000000E+00-0.00000000E+00-0.00000000E+00
11 14-0.00000000E+00 1.06146203E-01-0.00000000E+00-0.00000000E+00-0.00000000E+00
11 15-0.00000000E+00-0.00000000E+00 7.10243795E-01-0.00000000E+00-0.00000000E+00
11 16-0.00000000E+00-0.00000000E+00-0.00000000E+00 3.92431507E-01-0.00000000E+00
11 17-2.00929423E-06-0.00000000E+00-0.00000000E+00-0.00000000E+00-0.00000000E+00
11 18-4.92092121E-07-0.00000000E+00 2.67300218E-06-0.00000000E+00-0.00000000E+00
12  1-0.00000000E+00-0.00000000E+00-7.02633313E-05-0.00000000E+00-0.00000000E+00
12  2-0.00000000E+00 6.33773587E-04-0.00000000E+00-0.00000000E+00-0.00000000E+00
12  3-1.05699376E-03-0.00000000E+00-0.00000000E+00-0.00000000E+00 1.56031600E-03
12  4-0.00000000E+00-0.00000000E+00-0.00000000E+00-0.00000000E+00-0.00000000E+00
12  5-0.00000000E+00-7.32124185E-06-0.00000000E+00-0.00000000E+00-0.00000000E+00
12  6-0.00000000E+00-0.00000000E+00 4.18604830E-05-0.00000000E+00-0.00000000E+00
12  7-0.00000000E+00-0.00000000E+00-0.00000000E+00-1.25949488E-04-0.00000000E+00
12  8-1.52197006E-04-0.00000000E+00-0.00000000E+00-0.00000000E+00-0.00000000E+00
12  9-6.80386952E-05-0.00000000E+00-6.25768460E-05-0.00000000E+00-0.00000000E+00
12 10-0.00000000E+00-0.00000000E+00-5.56584531E-01-0.00000000E+00-0.00000000E+00
12 11-0.00000000E+00-5.53648942E-01-0.00000000E+00-0.00000000E+00-0.00000000E+00
12 12 8.31813830E-01-0.00000000E+00-0.00000000E+00-0.00000000E+00 1.18909224E-01
12 13-0.00000000E+00-0.00000000E+00-0.00000000E+00-0.00000000E+00-0.00000000E+00
12 14-0.00000000E+00 1.58051463E-06-0.00000000E+00-0.00000000E+00-0.00000000E+00
12 15-0.00000000E+00-0.00000000E+00 1.49218155E-05-0.00000000E+00-0.00000000E+00
12 16-0.00000000E+00-0.00000000E+00-0.00000000E+00 6.96202763E-06-0.00000000E+00
12 17 1.45184662E-01-0.00000000E+00-0.00000000E+00-0.00000000E+00-0.00000000E+00
12 18 6.63622079E-02-0.00000000E+00 6.34840454E-02-0.00000000E+00-0.00000000E+00
13  1-0.00000000E+00-0.00000000E+00 2.01474918E-03-0.00000000E+00-0.00000000E+00
13  2-0.00000000E+00 2.46180565E-01-0.00000000E+00-0.00000000E+00-0.00000000E+00
13  3-2.27893228E-01-0.00000000E+00-0.00000000E+00-0.00000000E+00 1.08734276E+00
13  4-0.00000000E+00-0.00000000E+00-0.00000000E+00-0.00000000E+00-0.00000000E+00
13  5-0.00000000E+00 4.63434055E-06-0.00000000E+00-0.00000000E+00-0.00000000E+00
13  6-0.00000000E+00-0.00000000E+00-2.51931756E-05-0.00000000E+00-0.00000000E+00
13  7-0.00000000E+00-0.00000000E+00-0.00000000E+00 1.76729144E-04-0.00000000E+00
13  8-4.82104515E-02-0.00000000E+00-0.00000000E+00-0.00000000E+00-0.00000000E+00
13  9-2.15603698E-02-0.00000000E+00-2.15438436E-02-0.00000000E+00-0.00000000E+00
13 10-0.00000000E+00-0.00000000E+00 1.35224190E-03-0.00000000E+00-0.00000000E+00
13 11-0.00000000E+00 2.09502697E-03-0.00000000E+00-0.00000000E+00-0.00000000E+00
13 12-1.41668569E-03-0.00000000E+00-0.00000000E+00-0.00000000E+00-2.24700853E-02
13 13-0.00000000E+00-0.00000000E+00-0.00000000E+00-0.00000000E+00-0.00000000E+00
13 14-0.00000000E+00-2.93181890E-05-0.00000000E+00-0.00000000E+00-0.00000000E+00
13 15-0.00000000E+00-0.00000000E+00-2.83588193E-04-0.00000000E+00-0.00000000E+00
13 16-0.00000000E+00-0.00000000E+00-0.00000000E+00-1.01923506E-03-0.00000000E+00
13 17-2.30247503E-04-0.00000000E+00-0.00000000E+00-0.00000000E+00-0.00000000E+00
13 18-1.04844773E-04-0.00000000E+00-1.03040299E-04-0.00000000E+00-0.00000000E+00
14  1-0.00000000E+00-0.00000000E+00-0.00000000E+00 2.01475078E-03-0.00000000E+00
14  2-0.00000000E+00-0.00000000E+00 2.46180562E-01-0.00000000E+00-0.00000000E+00
14  3-0.00000000E+00-2.27893213E-01-0.00000000E+00-0.00000000E+00-0.00000000E+00
14  4 1.08734275E+00-0.00000000E+00-0.00000000E+00-0.00000000E+00-0.00000000E+00
14  5-0.00000000E+00-0.00000000E+00 4.63435505E-06-0.00000000E+00-0.00000000E+00
14  6-0.00000000E+00-0.00000000E+00-0.00000000E+00-2.51932711E-05-0.00000000E+00
14  7-0.00000000E+00-0.00000000E+00-0.00000000E+00-0.00000000E+00 1.76729700E-04
14  8-0.00000000E+00-4.82104499E-02-0.00000000E+00-2.15603693E-02-0.00000000E+00
14  9-0.00000000E+00-0.00000000E+00-0.00000000E+00-2.15438429E-02-0.00000000E+00
14 10-0.00000000E+00-0.00000000E+00-0.00000000E+00 1.35224633E-03-0.00000000E+00
14 11-0.00000000E+00-0.00000000E+00 2.09503425E-03-0.00000000E+00-0.00000000E+00
14 12-0.00000000E+00-1.41668610E-03-0.00000000E+00-0.00000000E+00-0.00000000E+00
14 13-2.24701194E-02-0.00000000E+00-0.00000000E+00-0.00000000E+00-0.00000000E+00
14 14-0.00000000E+00-0.00000000E+00-2.93190399E-05-0.00000000E+00-0.00000000E+00
14 15-0.00000000E+00-0.00000000E+00-0.00000000E+00-2.83596589E-04-0.00000000E+00
14 16-0.00000000E+00-0.00000000E+00-0.00000000E+00-0.00000000E+00-1.01926435E-03
14 17-0.00000000E+00-2.30247863E-04-0.00000000E+00-1.04845057E-04-0.00000000E+00
14 18-0.00000000E+00-0.00000000E+00-0.00000000E+00-1.03040474E-04-0.00000000E+00
15  1-6.44124708E-03-2.64950801E-02 0.00000000E+00 0.00000000E+00-1.56468616E-03
15  2-2.71594269E-01 0.00000000E+00 0.00000000E+00-2.34349144E-01 1.24764537E+00
15  3 0.00000000E+00 0.00000000E+00 2.13943114E-01-7.49045615E-01 0.00000000E+00
15  4 0.00000000E+00-1.01148040E+00-8.36124650E-03-8.36124650E-03-8.42668052E-03
15  5 0.00000000E+00 0.00000000E+00 0.00000000E+00-3.14639387E-02-3.14639387E-02
15  6-3.10396507E-02 0.00000000E+00 0.00000000E+00 0.00000000E+00-2.03814187E-01
15  7-2.03814187E-01-2.06290414E-01 0.00000000E+00 0.00000000E+00 0.00000000E+00
15  8 0.00000000E+00 0.00000000E+00 4.61837458E-02 0.00000000E+00 2.06557359E-02
15  9 0.00000000E+00 2.06557359E-02 0.00000000E+00 0.00000000E+00 0.00000000E+00
15 10 2.12595106E-03 4.69868216E-03 0.00000000E+00 0.00000000E+00 1.18239157E-03
15 11-1.10850531E-02 0.00000000E+00 0.00000000E+00 1.62299494E-03-2.60370918E-02
15 12 0.00000000E+00 0.00000000E+00-7.68921673E-04-4.62420048E-02 0.00000000E+00
15 13 0.00000000E+00-2.18188904E-02 5.88357576E-04 5.88357576E-04 6.03429951E-04
15 14 0.00000000E+00 0.00000000E+00 0.00000000E+00 2.28073465E-03 2.28073465E-03
15 15 2.11510783E-03 0.00000000E+00 0.00000000E+00 0.00000000E+00 7.50149802E-03
15 16 7.50149802E-03 7.88864591E-03 0.00000000E+00 0.00000000E+00 0.00000000E+00
15 17 0.00000000E+00 0.00000000E+00-2.30162476E-04 0.00000000E+00-8.55199679E-05
15 18 0.00000000E+00-8.55199678E-05 0.00000000E+00 0.00000000E+00 0.00000000E+00
16  1-1.57038682E-02-6.54168844E-02 0.00000000E+00 0.00000000E+00 5.51160732E-04
16  2-6.79408816E-01 0.00000000E+00 0.00000000E+00 1.05645061E-01 3.09565838E+00
16  3 0.00000000E+00 0.00000000E+00-9.27430188E-02-1.83661348E+00 0.00000000E+00
16  4 0.00000000E+00 4.35077627E-01-2.09327423E-02-2.09327423E-02-2.08186873E-02
16  5 0.00000000E+00 0.00000000E+00 0.00000000E+00-7.77697758E-02-7.77697758E-02
16  6-7.85128670E-02 0.00000000E+00 0.00000000E+00 0.00000000E+00-5.12931966E-01
16  7-5.12931966E-01-5.08384254E-01 0.00000000E+00 0.00000000E+00 0.00000000E+00
16  8 0.00000000E+00 0.00000000E+00-2.09776557E-02 0.00000000E+00-9.34674571E-03
16  9 0.00000000E+00-9.34674571E-03 0.00000000E+00 0.00000000E+00 0.00000000E+00
16 10-3.15559339E-03-6.95736107E-03 0.00000000E+00 0.00000000E+00-1.68555458E-03
16 11 1.64895498E-02 0.00000000E+00 0.00000000E+00-1.94833232E-03 3.81863223E-02
16 12 0.00000000E+00 0.00000000E+00-6.48132705E-04 7.05390116E-02 0.00000000E+00
16 13 0.00000000E+00 3.67535241E-02-8.65421609E-04-8.65421610E-04-8.81242428E-04
16 14 0.00000000E+00 0.00000000E+00 0.00000000E+00-3.35917741E-03-3.35917740E-03
16 15-3.07613429E-03 0.00000000E+00 0.00000000E+00 0.00000000E+00-1.11098410E-02
16 16-1.11098410E-02-1.14346482E-02 0.00000000E+00 0.00000000E+00 0.00000000E+00
16 17 0.00000000E+00 0.00000000E+00 3.22224279E-04 0.00000000E+00 1.15880615E-04
16 18 0.00000000E+00 1.15880617E-04 0.00000000E+00 0.00000000E+00 0.00000000E+00
17  1-0.00000000E+00-0.00000000E+00 1.58337570E-01-0.00000000E+00-0.00000000E+00
17  2-0.00000000E+00-5.54361230E-01-0.00000000E+00-0.00000000E+00-0.00000000E+00
17  3 1.56085046E+00-0.00000000E+00-0.00000000E+00-0.00000000E+00-9.01702387E-01
17  4-0.00000000E+00-0.00000000E+00-0.00000000E+00-0.00000000E+00-0.00000000E+00
17  5-0.00000000E+00-9.62195747E-06-0.00000000E+00-0.00000000E+00-0.00000000E+00
17  6-0.00000000E+00-0.00000000E+00 8.30843707E-05-0.00000000E+00-0.00000000E+00
17  7-0.00000000E+00-0.00000000E+00-0.00000000E+00-4.03410933E-04-0.00000000E+00
17  8 2.06358089E-01-0.00000000E+00-0.00000000E+00-0.00000000E+00-0.00000000E+00
17  9 9.22861431E-02-0.00000000E+00 9.23391681E-02-0.00000000E+00-0.00000000E+00
17 10-0.00000000E+00-0.00000000E+00-6.12072543E-04-0.00000000E+00-0.00000000E+00
17 11-0.00000000E+00-7.01280734E-04-0.00000000E+00-0.00000000E+00-0.00000000E+00
17 12-4.72460264E-04-0.00000000E+00-0.00000000E+00-0.00000000E+00 1.36326685E-02
17 13-0.00000000E+00-0.00000000E+00-0.00000000E+00-0.00000000E+00-0.00000000E+00
17 14-0.00000000E+00 1.09667711E-06-0.00000000E+00-0.00000000E+00-0.00000000E+00
17 15-0.00000000E+00-0.00000000E+00-4.48736254E-05-0.00000000E+00-0.00000000E+00
17 16-0.00000000E+00-0.00000000E+00-0.00000000E+00 5.75829279E-05-0.00000000E+00
17 17 9.52518389E-05-0.00000000E+00-0.00000000E+00-0.00000000E+00-0.00000000E+00
17 18 4.34001948E-05-0.00000000E+00 4.78343835E-05-0.00000000E+00-0.00000000E+00
18  1-0.00000000E+00-0.00000000E+00-0.00000000E+00 1.58337570E-01-0.00000000E+00
18  2-0.00000000E+00-0.00000000E+00-5.54361237E-01-0.00000000E+00-0.00000000E+00
18  3-0.00000000E+00 1.56085047E+00-0.00000000E+00-0.00000000E+00-0.00000000E+00
18  4-9.01702401E-01-0.00000000E+00-0.00000000E+00-0.00000000E+00-0.00000000E+00
18  5-0.00000000E+00-0.00000000E+00-9.62197705E-06-0.00000000E+00-0.00000000E+00
18  6-0.00000000E+00-0.00000000E+00-0.00000000E+00 8.30844961E-05-0.00000000E+00
18  7-0.00000000E+00-0.00000000E+00-0.00000000E+00-0.00000000E+00-4.03411801E-04
18  8-0.00000000E+00 2.06358091E-01-0.00000000E+00 9.22861440E-02-0.00000000E+00
18  9-0.00000000E+00-0.00000000E+00-0.00000000E+00 9.23391689E-02-0.00000000E+00
18 10-0.00000000E+00-0.00000000E+00-0.00000000E+00-6.12077189E-04-0.00000000E+00
18 11-0.00000000E+00-0.00000000E+00-7.01288053E-04-0.00000000E+00-0.00000000E+00
18 12-0.00000000E+00-4.72461290E-04-0.00000000E+00-0.00000000E+00-0.00000000E+00
18 13 1.36327080E-02-0.00000000E+00-0.00000000E+00-0.00000000E+00-0.00000000E+00
18 14-0.00000000E+00-0.00000000E+00 1.09780613E-06-0.00000000E+00-0.00000000E+00
18 15-0.00000000E+00-0.00000000E+00-0.00000000E+00-4.48626944E-05-0.00000000E+00
18 16-0.00000000E+00-0.00000000E+00-0.00000000E+00-0.00000000E+00 5.76225063E-05
18 17-0.00000000E+00 9.52523320E-05-0.00000000E+00 4.34003817E-05-0.00000000E+00
18 18-0.00000000E+00-0.00000000E+00-0.00000000E+00 4.78345680E-05-0.00000000E+00