!  An (ala)3 peptide (protonated, 34 atoms) drifting in 256 He atoms.
!  This is to test the MD-CCS code for computing the collision 
!  cross section in ion mobility spectrometry (IMS).
!  This short-time (far from convergence) test gives:
!
!   TOTAL   ENERGY =  387.2853032506  KCAL/MOL
!   TOTAL   ENERGY =  374.0959190908  KCAL/MOL
!   CCS=      4174.36 A**2
!
!  *****************************************************************
!  Original NSTEP=100000000 JOUT=20000 KOUT=100000
!  Original CCS result = 88.97 A**2 
!  Although long-time MD simulation is not reproducible on different
!  machines, the final CCS value should be similar
!  *****************************************************************
!
 $CONTRL RUNTYP=MD COORD=FRAGONLY $END
 $SYSTEM TIMLIM=9  MWORDS=50 $END
 $QUANPO
         DIFFUSE=1 COM TIMDFS=1.0D-12 NATPDB=34
         DT=1.0D-15 TEMP0=298.15 NSTEP=1000 JOUT=1000 KOUT=1000
         NFFTYP=0 SWRA=10 SWRB=12 ITSTAT=1 IPSTAT=0 IRATTLE=0
         ISHIFT=4 IPOLSHF=0 NDIEL=0 IDOPOL=1 
         EFIELDX=-1.0D+07 EFIELDY=-1.0D+07 EFIELDZ=-1.0D+07
         XBOX=  61.150 YBOX=  61.150 ZBOX=  61.150 
 $END
 $FFDATA
 COORDINATES  NUC                   X                   Y                   Z
 C            6.0    -1.9498419998000     1.3690132772000    -2.7522905931000
 C            6.0    -3.1781561174000     0.4514987961000    -2.6519495079000
 C            6.0    -4.3614326220000     0.9785644392000    -3.4728411504000
 N            7.0    -3.5617733661000     0.2666561126000    -1.2594347317000
 O            8.0    -1.6016605690000     1.5448344516000    -4.0295326999000
 O            8.0    -1.3479666837000     1.8586624154000    -1.8131435752000
 H            1.0    -2.8529423961000    -0.5164240235000    -3.0506277395000
 H            1.0    -4.6949291215000     1.9532185024000    -3.1008203832000
 H            1.0    -4.0691956695000     1.0937998700000    -4.5169641055000
 H            1.0    -5.1948921607000     0.2736703293000    -3.4189502047000
 H            1.0    -0.8238903668000     2.1283877432000    -4.0680093556000
 H            1.0    -4.3862551439000     0.7491264021000    -0.9281567015000
 C            6.0    -2.7732187593000    -0.3880386277000    -0.3836616255000
 C            6.0    -3.2682631446000    -0.3962941821000     1.0837066103000
 C            6.0    -4.4035350855000    -1.4165789845000     1.2603341624000
 N            7.0    -2.1805253568000    -0.7203773994000     1.9981641403000
 O            8.0    -1.7132090643000    -0.9246755860000    -0.7275417721000
 H            1.0    -3.6551744763000     0.6052667930000     1.3162971032000
 H            1.0    -4.0551599749000    -2.4217196652000     1.0032727728000
 H            1.0    -4.7555632455000    -1.4133436210000     2.2952823666000
 H            1.0    -5.2473486785000    -1.1715956732000     0.6114579430000
 H            1.0    -2.2227297675000    -1.6236157140000     2.4582649510000
 C            6.0    -0.9188983622000    -0.2146000462000     1.9647405190000
 C            6.0    -0.6631636361000     1.1094760833000     1.2087348931000
 C            6.0    -0.0317569049000     2.1543256114000     2.1202330911000
 N            7.0     0.3038518581000     0.6963260895000     0.1183926098000
 O            8.0     0.0440117481000    -0.7480403880000     2.4984960154000
 H            1.0    -1.5258604800000     1.5152004668000     0.6814466531000
 H            1.0    -0.7565707201000     2.4537201038000     2.8819152964000
 H            1.0     0.8406799298000     1.7382409781000     2.6302129415000
 H            1.0     0.2522796674000     3.0487140389000     1.5573234172000
 H            1.0    -0.2022372664000     0.0078582158000    -0.4787581566000
 H            1.0     1.1181631780000     0.2470919270000     0.5530414006000
 H            1.0     0.5755329971000     1.4904058658000    -0.4657130272000
 HE           2.0    -5.4189083075391   -23.5220350086354   -17.2204851131276
 HE           2.0    19.9198390442894   -23.6442419619097    22.8855071356905
 HE           2.0    -4.7855848059271    18.7342203962958   -24.3461762829929
 HE           2.0   -10.6005228015984   -25.1861138826327    13.8838095542398
 HE           2.0    15.1324040722553   -16.7960032363237    12.3380173320552
 HE           2.0    -2.4417447854811    18.4338537850874    19.0824394276354
 HE           2.0   -15.7872173788061    21.4674904913562   -23.9852797515122
 HE           2.0   -24.0015448619868     6.8729352107171    -2.6961628721296
 HE           2.0   -20.4603830095473    -8.6216508673750     5.8883829488494
 HE           2.0     5.4143073611961     6.6505642836050    18.5983615210480
 HE           2.0     9.7222055566223     6.3039788707080     1.9001514116876
 HE           2.0   -21.4192913942684   -10.3976479147084    -7.6631253331918
 HE           2.0    12.3500187071696    16.0640478916658    22.0983954557560
 HE           2.0    -3.1948036021034   -12.0500524362235    17.6401258858301
 HE           2.0   -11.1021460086205     1.2267494327664     4.9598003632951
 HE           2.0     4.3180715628121   -24.8256133173770   -23.8680267850949
 HE           2.0   -15.1796890251162   -21.0573527586126     3.2153333909429
 HE           2.0    24.2370247958234     7.3970668016636    15.3513785255138
 HE           2.0     1.9634400284477   -19.2043447177192    -3.0223216778575
 HE           2.0   -12.1943498625659    24.9769050474275    25.5765638580206
 HE           2.0    23.8962450620531   -24.6218243969513     6.1267195014843
 HE           2.0   -22.2092808453080    18.4505647671474    20.1451945945079
 HE           2.0    -1.0354150722003     5.8866313524726     5.2451842350564
 HE           2.0    -2.4199666050264    -7.9752691871624    -1.7823345285784
 HE           2.0     2.7995112302109   -24.2726449513195    23.5349152773244
 HE           2.0    10.2497147175886    16.6056318513129    23.7899909645629
 HE           2.0     8.8548946268022    -2.5742554016599    10.1205153165613
 HE           2.0   -23.5160471280067   -18.8946152435025   -16.8371477584286
 HE           2.0    -8.4622726930120     8.5893369153164   -22.9668758932751
 HE           2.0    -6.1374749480108    10.1393847709851    21.9782853576237
 HE           2.0   -18.7098191726124   -20.1041809904702    -0.7218896563963
 HE           2.0    13.3486487551246     1.9866150723571     1.8768043148800
 HE           2.0   -21.1647017691052    13.6937753652868     3.0939149580892
 HE           2.0   -12.6171521160173     4.2730282550448    11.6020057299432
 HE           2.0    10.4998018119945    13.2808379919211    -0.1921795052512
 HE           2.0   -12.8472118864141     8.0343174086814     7.8580666761833
 HE           2.0    -3.4933031096527   -11.9881987462830   -12.3828924314324
 HE           2.0    14.9294107948772   -15.1220907742554    -1.6478911879306
 HE           2.0    -1.8363442888406    20.9626080020304    -2.3722452987030
 HE           2.0    21.9508714226124   -12.5216658030499     6.7416375411936
 HE           2.0   -25.0272089983283     8.5805931929341    17.5915418310376
 HE           2.0    -9.5036370620260   -19.3069558783697   -17.8639060855663
 HE           2.0    -1.9725689802714    10.4571548749693   -17.8766965673807
 HE           2.0   -20.8169549450087    -0.7544888662744     3.1568061043027
 HE           2.0    -3.3701034113305    18.9988873582371   -19.4566006343325
 HE           2.0    10.9253086059374    24.0662495954057    22.4074573458728
 HE           2.0     8.0115142137847    20.1978365601133   -13.7707814747732
 HE           2.0    24.2540985029633    24.6678243578774    -5.0500966557521
 HE           2.0   -20.6319593447961   -23.7450126075638    -0.1465634887007
 HE           2.0   -23.0406309504768    15.7599014227305    22.6658846350103
 HE           2.0   -16.3078928571542     5.9216587042724   -23.4092481815519
 HE           2.0    17.7690352468630    24.4820911018869   -20.7351498866502
 HE           2.0    19.8691600714931     7.6306286464812     1.2648592918671
 HE           2.0    23.7505583234763   -22.6617113190383    19.5646702910134
 HE           2.0   -20.8227151860775   -14.0866396300704    22.3059062999716
 HE           2.0    -5.4174421279955    21.6166992904239    -1.4403709730699
 HE           2.0     1.7233583142152    -1.2148253442113    24.1471910084039
 HE           2.0   -22.1103474873033    23.3514223552657    25.0666781209905
 HE           2.0    21.6963638077012    12.7275868935878    24.9210442981762
 HE           2.0     6.3311509154226    23.0147720339364    -3.3391140580690
 HE           2.0     0.4870363307525    13.6847356744545     6.0132964166886
 HE           2.0    22.7002606034468    22.6080332228968    18.2684473166824
 HE           2.0    24.5719252844527    20.1234945518960    -2.4469312940299
 HE           2.0   -11.4096520827711   -24.3144506240674     0.9170018689554
 HE           2.0    -0.2508951964310   -22.0788173326730   -21.7721810209176
 HE           2.0    22.1509043176068    14.6272232769223    11.0747004512341
 HE           2.0     0.8612257268825     4.3458810601462     9.4824811896608
 HE           2.0    13.4438852043398   -18.5422896673944    22.0834227963002
 HE           2.0   -23.9077498470303   -15.4965836966519    -4.4458264654622
 HE           2.0    -0.0281552890514     4.8751287252617    13.8471862661040
 HE           2.0    -8.8413286857641    -2.2424666296602    11.7323311871089
 HE           2.0   -23.0097089845788   -12.5116731658939     8.1208402714946
 HE           2.0   -20.0166175998142    10.8751525151541    10.3266839123653
 HE           2.0    18.7012376972334    -7.5138656589772    19.1934801098570
 HE           2.0   -17.5078077253983   -21.8118007252783     0.8015226380207
 HE           2.0    18.6557883382029    22.0229277682968    18.5676278365657
 HE           2.0    22.3255891371393    17.4198627729663    -9.7665554110676
 HE           2.0   -20.4316086326401     0.2166922754935    -3.2456877224908
 HE           2.0    -1.8233818978565    20.0722512345525     0.3513422245720
 HE           2.0   -21.7489642641625   -11.0576549365716    -3.4211770509222
 HE           2.0   -16.2355540232783    -9.3374114237151     1.9339535050065
 HE           2.0    -3.8202581408769    21.9714347042832    18.7623856277839
 HE           2.0   -22.6960818071604    10.2976527859999    17.2338145793028
 HE           2.0   -18.2575521411764   -15.3325861593535     2.0631036604390
 HE           2.0   -19.1994627029023    20.2994641195960    18.7322832712612
 HE           2.0    23.2789791845519   -20.6888777448307    25.6744722860091
 HE           2.0   -20.3093814823264    24.5622394030339    -7.1516981231622
 HE           2.0    22.8808007309175     0.9347285681345   -18.9604745691487
 HE           2.0    -0.5660601780956    23.6973318028558    19.0728274383366
 HE           2.0    -0.5612453863691    17.2939476838996   -17.9213452128221
 HE           2.0     0.0217547068475   -23.2496345861186    17.0617143731003
 HE           2.0    -6.7994834856479     8.1697889163657   -13.6000025099137
 HE           2.0     7.7662244254642    22.9491025927451   -14.6365458176224
 HE           2.0    21.5274531539421    -6.4987733567199    13.6922520830853
 HE           2.0    -9.7166191160848   -25.0965014957368   -16.9326708759140
 HE           2.0   -24.1648844901902    24.2184730211780     9.7122376967181
 HE           2.0    17.6488308682301   -20.3060910950326     5.9167509713576
 HE           2.0   -14.2113847434552    -9.0096174517723     7.3388842902109
 HE           2.0    -4.7639865741699    -8.2784677342984    20.9847388641707
 HE           2.0   -15.3729602536250   -18.5410817712763   -22.9251963222978
 HE           2.0    19.9952470348428    23.9905598754485     1.3848371791188
 HE           2.0    25.1128958470694    10.4962932923514   -22.0300074218865
 HE           2.0    -7.2342581845805    -2.1502284836640   -12.6112383231108
 HE           2.0    20.7162621400349    21.5423856184606   -11.3061495729375
 HE           2.0    -6.7417527304645   -19.0997499654454    12.1318720299324
 HE           2.0   -18.2132880473449   -15.3061921367238     7.2735125407692
 HE           2.0   -21.4034363029245    -7.8263662533658    12.9613629641488
 HE           2.0     0.1448143654131    23.4338253004806    -8.4064319987919
 HE           2.0    10.8364307894729   -22.8666907543347   -21.5815419230118
 HE           2.0    -1.5921237259124    16.4498988891660    -7.4608899722676
 HE           2.0   -20.5922229815754   -17.2108222772685     8.8418343859151
 HE           2.0   -23.0677177810637    13.7350177782723   -24.5522199702733
 HE           2.0   -20.3711364647886   -24.7490356006804    -2.9312930280504
 HE           2.0     1.3350566915242    15.0811071556703   -20.7883041957704
 HE           2.0    14.6687788032384    10.8302161656941    -9.5414971559260
 HE           2.0   -23.4516417595918    10.5536309252446    -7.1593706195334
 HE           2.0    -0.2121800315801    20.4262095864867    -1.6517991779948
 HE           2.0    19.1595876088981     5.6997078236460    21.8660264633566
 HE           2.0   -15.7959940698696    13.6337885431933    13.8505232357878
 HE           2.0   -21.5645618026642   -22.3883831467467    -3.1780803351398
 HE           2.0     0.1618634547760   -17.9041501112069    -7.9329256605923
 HE           2.0   -24.5364826067088    22.3462711013052   -17.6093462283343
 HE           2.0    19.5332372273682   -21.2091732679646   -24.9417551661039
 HE           2.0   -22.6496928951224     9.7788400880790    -2.6098281477502
 HE           2.0    17.7600297408691     2.8507334718802   -16.2753400714133
 HE           2.0   -16.5713768654925   -19.3811084773645    22.1411942461868
 HE           2.0    -6.0083785927582     7.9920666351460   -21.8391655209057
 HE           2.0    22.6325448630399   -18.9966151113121   -22.3127576752452
 HE           2.0    16.4109602139401     2.0608701307205   -13.6983971446297
 HE           2.0   -12.6406745476789    15.6314423054458    23.9907660376138
 HE           2.0    -7.8715057634697   -23.4245006522713   -14.8078415814243
 HE           2.0   -15.9707082979964    24.4090425405336     3.1818114316541
 HE           2.0    -0.5371520744456     1.6620202772831    13.1185161043518
 HE           2.0   -24.1430046932029   -15.1117581714651   -19.0890082592816
 HE           2.0    20.0287388327941   -21.0172064346637     7.1133061309393
 HE           2.0   -23.2456800981152   -11.5438078698092    -5.7080800953946
 HE           2.0   -17.4263369573655    -2.9394901671263   -24.7437113898462
 HE           2.0   -13.4743602919712    -5.1711137290173   -15.9254288286670
 HE           2.0   -13.1220805145146   -23.6955646290116   -22.0425719855522
 HE           2.0     0.2908079643381   -13.4901189847580   -11.7399602421862
 HE           2.0    -9.5371845535833   -18.8521089284422    21.9979845179869
 HE           2.0     8.8490536305736    24.9375111550286    13.5390830971347
 HE           2.0   -17.4587756381192    -4.4282100494334    18.0772527651406
 HE           2.0    18.2414644915191     6.2275317627900   -16.0036086294642
 HE           2.0    24.5740588736736     5.7366372792563     4.6439700586532
 HE           2.0    16.1331500361913    21.0485763903688   -23.3995538124709
 HE           2.0    11.4178686540144    17.1813702473003   -24.2916401055384
 HE           2.0   -20.6301925823474    13.8574138074538    24.0596941680421
 HE           2.0    -6.4231448451132    16.3966398195524    19.2898631341174
 HE           2.0   -21.1995401619733    24.9592973203943     2.0203888933087
 HE           2.0    15.9797419204394    23.5871837921836    14.3777712233812
 HE           2.0    16.5969225387476    12.4161036632248   -19.7657842548374
 HE           2.0   -13.2965420729548   -16.4458739225488     1.8877968946996
 HE           2.0     1.2104339307165   -19.2333802249445   -22.6581259221772
 HE           2.0    13.3874849552652   -16.0421549219724     0.5531835581069
 HE           2.0   -10.9189308806213   -23.5682720889766    -6.1679809935249
 HE           2.0    -0.7833806007962    16.7323775528834   -14.5456168026513
 HE           2.0   -13.7295052297826   -25.2811384387618     8.3973238772499
 HE           2.0   -23.0540939688049   -24.4484465663298    14.3130400516446
 HE           2.0   -13.9594192885772    24.2265540118744    21.9589659776123
 HE           2.0   -12.7638114540027   -14.0661824518142     7.5597877512190
 HE           2.0    14.4820757145802    -8.6490981026224    10.1949869315682
 HE           2.0    21.0999682318468   -14.0600255093117     1.8652216861914
 HE           2.0    13.7704491132225   -12.0363089894637   -19.0590486855647
 HE           2.0    19.3546590088130   -24.5786519455045    25.6787320955833
 HE           2.0    -6.5744590151950   -21.9763163166207    17.4208729771975
 HE           2.0   -16.7167959851060   -15.0220337936274    21.2576972410715
 HE           2.0   -24.5482289792318     1.7469748711169   -11.3713800120163
 HE           2.0   -18.7313757259205     3.3565237502467   -18.4106635166041
 HE           2.0    19.7927990072499   -24.2050607851874   -20.3523588474385
 HE           2.0    12.2992175892383     9.8114101918428   -21.2556875354752
 HE           2.0    22.8394405733457    16.2411985937370    24.2696819203915
 HE           2.0    18.9560644863050    -2.6952440070836    22.6692276531290
 HE           2.0    21.6616589108728   -24.5694259075167   -10.9480791464463
 HE           2.0   -20.2894061454525    -8.1839644984317   -10.0615516160585
 HE           2.0   -12.9473306658692   -22.6688115390489     2.9875854059119
 HE           2.0   -17.1788802400839    -0.8281846823446   -21.2139701653226
 HE           2.0    -9.1274962448607   -10.5616853627629    -3.3155623965342
 HE           2.0     7.6612485412997    -9.0637483657556    16.4110442565162
 HE           2.0   -18.2405220301629    -8.6096465009016    -0.3502006923025
 HE           2.0     2.9451601645845   -14.7683358774501   -11.3413683743438
 HE           2.0    23.5367117436158    21.1332001451610    11.2633040010298
 HE           2.0     9.1591588086383    14.4569286502689    21.4370449690989
 HE           2.0    12.3001796498928     6.5960268063081   -21.4974505646797
 HE           2.0     2.7167748210134   -14.9985479625437    21.6423089368442
 HE           2.0     6.2683366266867    -4.0893196754939    12.9445196316880
 HE           2.0    -3.9102015528216   -10.7832854690302   -22.8865974567328
 HE           2.0     2.5623258366210     2.8378677921609   -24.2533179380261
 HE           2.0    21.6677358678811    21.3763676070035   -16.7097808273136
 HE           2.0   -24.0929361013475    24.2421642847440     1.9918120639497
 HE           2.0    15.5506958115641   -15.2156897499958    -4.5714661096255
 HE           2.0    12.3118117869843    24.9367384225573    12.8928160391619
 HE           2.0    -0.4980282476731    21.0841833229067    17.4225938806569
 HE           2.0    15.0764451383159    -7.3950193462667    -9.3319400207582
 HE           2.0    14.9421929082155    12.3222958935104   -17.0642882555285
 HE           2.0   -22.4231959609574     6.2616616853138   -12.1557946741717
 HE           2.0     2.4527256729423    16.6917039177882     6.4617441242555
 HE           2.0     7.9589984834343   -24.1812616992912    23.6254449420152
 HE           2.0    14.9795911087856     3.4259243211541    -3.9408334366191
 HE           2.0     8.3306974036003     1.3704764938656   -20.7853397271468
 HE           2.0     4.1001048650302    19.2229590684733     6.9608257766153
 HE           2.0    20.2698753447750   -13.9163109216340    19.1691711983188
 HE           2.0    24.6868264151031     6.8539872861695    19.8320318878313
 HE           2.0     8.9616341971250     4.9190965061551    -6.9324549925981
 HE           2.0   -23.2111577845797   -22.7938254561628    18.2446212168757
 HE           2.0     3.4160705543649   -24.6238296474821     5.8702310745468
 HE           2.0   -23.0499631217143     9.3113777103327   -20.8505457524714
 HE           2.0   -13.1845006642150   -25.4051977643986     3.6328248638682
 HE           2.0     8.1564793977405   -22.4306306151861     7.7214497244098
 HE           2.0     7.8383973697916    24.3894172006903   -19.6966213963216
 HE           2.0    -4.5015507577692   -23.3108441527230   -19.9575735562601
 HE           2.0   -22.0103882930366    22.6945079811774    20.6993447062181
 HE           2.0     0.1045330862675     9.1245130750907   -19.1148338790011
 HE           2.0     0.2421950600095   -16.4775244852063    19.7191389517161
 HE           2.0    22.0854070455540    10.9850053280601   -22.4889466843153
 HE           2.0    21.8209022509130   -15.8602653938737   -13.0704109887395
 HE           2.0    -5.6844322969351   -11.5703021783982   -14.8780993540780
 HE           2.0   -10.0147074785605   -23.8670932238228   -23.4268212313277
 HE           2.0    -7.0573507983548    23.4761749514502    -9.2310193465453
 HE           2.0   -19.0358746501705    -2.5473608045900     2.0095334991991
 HE           2.0    15.9151680405419    -7.6511435349970   -17.4302652002757
 HE           2.0     0.0881911938250   -18.4590685290707     5.5749046686089
 HE           2.0    -4.8122283553550    -6.1468292066057   -20.4817323181076
 HE           2.0    -2.9554384819320    14.5932637464140   -19.8986042210205
 HE           2.0   -14.9657053138157   -21.9201337845525   -20.0082221937399
 HE           2.0   -24.8394516323196    15.8403399795239    15.7879315508430
 HE           2.0    -7.2534322105350   -16.5854011772930    -1.2752237063192
 HE           2.0   -13.6484068813715   -17.6066591667238   -14.1456599573936
 HE           2.0    16.3478517777650    -8.5165471637929   -20.0607222704892
 HE           2.0   -10.1100479749192    -4.9940242287571    18.5529880907903
 HE           2.0   -17.8546581434930   -25.5049991342255    -3.5250789768664
 HE           2.0    24.2505486141681    24.4254737588950    -9.1338623416894
 HE           2.0     9.8477177376282    21.2239229885350     6.5562763978429
 HE           2.0    -3.5105867923019   -20.6270559367917   -17.4281965143904
 HE           2.0    -4.1943315031809    14.5915520496408    -1.7792960602313
 HE           2.0   -21.9193633781130    16.7807812597825    -2.0258827399393
 HE           2.0     1.1315003975602   -13.1073218624609   -23.5617922431230
 HE           2.0   -23.4277564896575    10.8214804968839     5.1820125356098
 HE           2.0   -10.3752760923875    -4.3694166159444    25.0161009425302
 HE           2.0    17.1850238429465    10.4204806394423     8.2349212315620
 HE           2.0   -20.9756421765847    -4.0460946423978    -1.9548931841468
 HE           2.0   -10.7960973357460    -3.9764389719319   -16.6581237323485
 HE           2.0    17.4584582349777   -22.0517599938910    23.1370585664028
 HE           2.0    16.2682750724177    -3.8796804212221    -8.4104445008297
 HE           2.0   -22.3388530143902    15.6360556890236     0.9305648684291
 HE           2.0   -11.9499119628563    23.8690543498884    -6.8313877783223
 HE           2.0   -13.9978945113227    -3.6567577449852    15.2820670021391
 HE           2.0   -24.7443205387651   -15.7089314667022     0.8163976035658
 HE           2.0     9.7362434338761     7.7331832604010     7.3913155152162
 HE           2.0    22.9102538240338    -5.6615562674488   -22.2841415963295
 HE           2.0   -25.3965492562296    18.6457565508380    20.2500491361751
 HE           2.0   -18.5132358047930    -9.7840945999041    18.9603176961343
 HE           2.0    18.4242192820807    18.2659986963414    17.8145454987989
 HE           2.0    17.5958772463084   -23.8931764234371   -14.3139087565902
 HE           2.0   -21.9251581267511     1.7536028701613    19.1140031184390
 HE           2.0    20.6632948735046   -13.5779456568590   -12.2576333434294
 STOP
 PARAMETERS       MASS         Q      POL   RMIN/2  EPSILON   RMIN/2  EPSILON
 C           12.000000   0.65900 0.000000 1.908000 0.086000 1.908000 0.043000
 C           12.000000   0.36110 0.000000 1.908000 0.086000 1.908000 0.043000
 C           12.000000   0.00000 0.000000 1.908000 0.086000 1.908000 0.043000
 N           14.003070  -0.73010 0.000000 1.824000 0.170000 1.824000 0.085000
 O           15.994910  -0.65000 0.000000 1.700000 0.200000 1.700000 0.100000
 O           15.994910  -0.57000 0.000000 1.700000 0.200000 1.700000 0.100000
 H            1.007825   0.00000 0.000000 0.600000 0.016000 0.600000 0.008000
 H            1.007825   0.00000 0.000000 0.600000 0.016000 0.600000 0.008000
 H            1.007825   0.00000 0.000000 0.600000 0.016000 0.600000 0.008000
 H            1.007825   0.00000 0.000000 0.600000 0.016000 0.600000 0.008000
 H            1.007825   0.50000 0.000000 0.600000 0.016000 0.600000 0.008000
 H            1.007825   0.37000 0.000000 0.600000 0.016000 0.600000 0.008000
 C           12.000000   0.56900 0.000000 1.908000 0.086000 1.908000 0.043000
 C           12.000000   0.36110 0.000000 1.908000 0.086000 1.908000 0.043000
 C           12.000000   0.00000 0.000000 1.908000 0.086000 1.908000 0.043000
 N           14.003070  -0.73010 0.000000 1.824000 0.170000 1.824000 0.085000
 O           15.994910  -0.57000 0.000000 1.700000 0.200000 1.700000 0.100000
 H            1.007825   0.00000 0.000000 0.600000 0.016000 0.600000 0.008000
 H            1.007825   0.00000 0.000000 0.600000 0.016000 0.600000 0.008000
 H            1.007825   0.00000 0.000000 0.600000 0.016000 0.600000 0.008000
 H            1.007825   0.00000 0.000000 0.600000 0.016000 0.600000 0.008000
 H            1.007825   0.37000 0.000000 0.600000 0.016000 0.600000 0.008000
 C           12.000000   0.56900 0.000000 1.908000 0.086000 1.908000 0.043000
 C           12.000000   0.56400 0.000000 1.908000 0.086000 1.908000 0.043000
 C           12.000000   0.00000 0.000000 1.908000 0.086000 1.908000 0.043000
 N           14.003070  -0.85300 0.000000 1.824000 0.170000 1.824000 0.085000
 O           15.994910  -0.57000 0.000000 1.700000 0.200000 1.700000 0.100000
 H            1.007825   0.00000 0.000000 0.600000 0.016000 0.600000 0.008000
 H            1.007825   0.00000 0.000000 0.600000 0.016000 0.600000 0.008000
 H            1.007825   0.00000 0.000000 0.600000 0.016000 0.600000 0.008000
 H            1.007825   0.00000 0.000000 0.600000 0.016000 0.600000 0.008000
 H            1.007825   0.45000 0.000000 0.600000 0.016000 0.600000 0.008000
 H            1.007825   0.45000 0.000000 0.600000 0.016000 0.600000 0.008000
 H            1.007825   0.45000 0.000000 0.600000 0.016000 0.600000 0.008000
 HE           4.002600   0.00000 0.205100 1.500000 0.040000 0.000000 0.000000
 HE           4.002600   0.00000 0.205100 1.500000 0.040000 0.000000 0.000000
 HE           4.002600   0.00000 0.205100 1.500000 0.040000 0.000000 0.000000
 HE           4.002600   0.00000 0.205100 1.500000 0.040000 0.000000 0.000000
 HE           4.002600   0.00000 0.205100 1.500000 0.040000 0.000000 0.000000
 HE           4.002600   0.00000 0.205100 1.500000 0.040000 0.000000 0.000000
 HE           4.002600   0.00000 0.205100 1.500000 0.040000 0.000000 0.000000
 HE           4.002600   0.00000 0.205100 1.500000 0.040000 0.000000 0.000000
 HE           4.002600   0.00000 0.205100 1.500000 0.040000 0.000000 0.000000
 HE           4.002600   0.00000 0.205100 1.500000 0.040000 0.000000 0.000000
 HE           4.002600   0.00000 0.205100 1.500000 0.040000 0.000000 0.000000
 HE           4.002600   0.00000 0.205100 1.500000 0.040000 0.000000 0.000000
 HE           4.002600   0.00000 0.205100 1.500000 0.040000 0.000000 0.000000
 HE           4.002600   0.00000 0.205100 1.500000 0.040000 0.000000 0.000000
 HE           4.002600   0.00000 0.205100 1.500000 0.040000 0.000000 0.000000
 HE           4.002600   0.00000 0.205100 1.500000 0.040000 0.000000 0.000000
 HE           4.002600   0.00000 0.205100 1.500000 0.040000 0.000000 0.000000
 HE           4.002600   0.00000 0.205100 1.500000 0.040000 0.000000 0.000000
 HE           4.002600   0.00000 0.205100 1.500000 0.040000 0.000000 0.000000
 HE           4.002600   0.00000 0.205100 1.500000 0.040000 0.000000 0.000000
 HE           4.002600   0.00000 0.205100 1.500000 0.040000 0.000000 0.000000
 HE           4.002600   0.00000 0.205100 1.500000 0.040000 0.000000 0.000000
 HE           4.002600   0.00000 0.205100 1.500000 0.040000 0.000000 0.000000
 HE           4.002600   0.00000 0.205100 1.500000 0.040000 0.000000 0.000000
 HE           4.002600   0.00000 0.205100 1.500000 0.040000 0.000000 0.000000
 HE           4.002600   0.00000 0.205100 1.500000 0.040000 0.000000 0.000000
 HE           4.002600   0.00000 0.205100 1.500000 0.040000 0.000000 0.000000
 HE           4.002600   0.00000 0.205100 1.500000 0.040000 0.000000 0.000000
 HE           4.002600   0.00000 0.205100 1.500000 0.040000 0.000000 0.000000
 HE           4.002600   0.00000 0.205100 1.500000 0.040000 0.000000 0.000000
 HE           4.002600   0.00000 0.205100 1.500000 0.040000 0.000000 0.000000
 HE           4.002600   0.00000 0.205100 1.500000 0.040000 0.000000 0.000000
 HE           4.002600   0.00000 0.205100 1.500000 0.040000 0.000000 0.000000
 HE           4.002600   0.00000 0.205100 1.500000 0.040000 0.000000 0.000000
 HE           4.002600   0.00000 0.205100 1.500000 0.040000 0.000000 0.000000
 HE           4.002600   0.00000 0.205100 1.500000 0.040000 0.000000 0.000000
 HE           4.002600   0.00000 0.205100 1.500000 0.040000 0.000000 0.000000
 HE           4.002600   0.00000 0.205100 1.500000 0.040000 0.000000 0.000000
 HE           4.002600   0.00000 0.205100 1.500000 0.040000 0.000000 0.000000
 HE           4.002600   0.00000 0.205100 1.500000 0.040000 0.000000 0.000000
 HE           4.002600   0.00000 0.205100 1.500000 0.040000 0.000000 0.000000
 HE           4.002600   0.00000 0.205100 1.500000 0.040000 0.000000 0.000000
 HE           4.002600   0.00000 0.205100 1.500000 0.040000 0.000000 0.000000