!   a QM water molecule: DFTB3 with the 3ob-3-1 parameters
!   a MM water molecule: QP302, polarizable
!
!   TOTAL     ENERGY =               -2553.0530403452  KCAL/MOL
!   TOTAL     ENERGY =               -2557.6058145087  KCAL/MOL
!
 $CONTRL SCFTYP=RHF RUNTYP=optimize ICHARG=0 MULT=1 MAXIT=200 $END
 $BASIS  GBASIS=DFTB $END
 $SCF    DIIS=.F. SOSCF=.T. DIRSCF=.T. FDIFF=.F. ETHRSH=10.0 $END
 $STATPT OPTTOL=1.0D-7 $END
 $SYSTEM TIMLIM=2 MWORDS=50 $END
 $DFTB
   NDFTB=3 HUBDER(1)=-0.1575  -0.1857 
   DAMPXH=.TRUE. DAMPEX=4.00
 $END
 $DFTBSK
   H  H  "/shared/gms/auxdata/DFTB/3OB-3-1/H-H.skf"
   H  O  "/shared/gms/auxdata/DFTB/3OB-3-1/H-O.skf"
   O  H  "/shared/gms/auxdata/DFTB/3OB-3-1/O-H.skf"
   O  O  "/shared/gms/auxdata/DFTB/3OB-3-1/O-O.skf"
 $END
 $DATA
Comments go here: Frame #
C1
 O           8.0   4.1110849272   2.2701110691  -0.7466010588
 H           1.0   3.7576857645   2.8814288121  -0.0994910036
 H           1.0   5.0699034117   2.3288469914  -0.6405031515
 $END
 $QUANPO NFFTYP=0 TEMP0=298.15 NSTEP=1 JOUT=1 KOUT=1 IHESS=1
         SWRA=10.0 SWRB=12.0 IPOLSHF=1 
 $END
 $FFDATA 
 COORDINATES  NUC
 O           8.0   4.1110849272   2.2701110691  -0.7466010588
 H           1.0   3.7576857645   2.8814288121  -0.0994910036
 H           1.0   5.0699034117   2.3288469914  -0.6405031515
 O1          8.0   7.0132175853   2.2595634263  -0.6391495442
 H2          1.0   7.3640590582   2.4825967547  -1.5040530844
 H3          1.0   7.3285731133   1.3688173263  -0.4716249975
 STOP
 PARAMETERS       MASS         Q      POL   RMIN/2  EPSILON   RMIN/2  EPSILON
 O           15.999000  -0.71600 0.800000 1.814200 0.152000 0.000000 0.000000
 H            1.008000   0.35800 0.000000 0.000000 0.000000 0.000000 0.000000
 H            1.008000   0.35800 0.000000 0.000000 0.000000 0.000000 0.000000
 O1          15.999000  -0.71600 0.800000 1.814200 0.152000 0.000000 0.000000
 H2           1.008000   0.35800 0.000000 0.000000 0.000000 0.000000 0.000000
 H3           1.008000   0.35800 0.000000 0.000000 0.000000 0.000000 0.000000
 STOP
 BOND     #     ATM1     ATM2       FC        R0
          1        1        2   450.00  1.030000
          2        1        3   450.00  1.030000
          3        2        3     0.00  1.681970
          4        4        5   450.00  1.030000
          5        4        6   450.00  1.030000
          6        5        6     0.00  1.681970
 STOP
 ANGLE    #     ATM1     ATM2     ATM3       FC      ANGLE0
          1        2        1        3    55.00   109.47000
          2        5        4        6    55.00   109.47000
 STOP
 $END
