! GAMESS/VB2000 Test 36
!
! This test builds on exam11.inp to demonstrate that VB2000 in GAMESS
! can calculate a VB saddle point starting from the HF saddle point. Only
! the first point of the Intrinsic Reaction Coordinate (IRC) path in the
! standard GAMESS test EXAM 11 is used as the starting geometry.
!
! We need to do a prelimary run. Saddle point calculations need a
! Hessian. A HF Hessian will be sufficient.
!
! $CONTRL SCFTYP=RHF RUNTYP=HESSIAN $END
! $GUESS  GUESS=HUCKEL $END
! $BASIS  GBASIS=STO NGAUSS=3 $END
!
! The VB convergence is slow. This is due to the fact that if convergence
! is set to larger than ECONV 7, it will take many more iterations to 
! move over to a pi rather than a sigma VB system. 
!
! The main data below is the test of finding VB2000 saddle points.
! Note that having got the HESSIAN, we also have a $VEC group to 
! use MOREAD. However, note that you have to remove the $GRAD block
! as this will confuse the code into thinking that the saddle point 
! has been found.
!
 $CONTRL SCFTYP=RHF VBTYP=VB2000 RUNTYP=SADPOINT NUMGRD=.TRUE.
  INTTYP=HONDO $END
 $STATPT OPTTOL=0.000001 $END
 $SYSTEM KDIAG=3 $END
 $GUESS  GUESS=MOREAD $END
 $BASIS  GBASIS=STO NGAUSS=3 $END
!
 $DATA
HYDROGEN CYANIDE...STO-3G..IRC
C1
NITROGEN    7.0   -.0004620071    .0002821165    .0000000000
CARBON      6.0   1.2208931990   -.0003427488    .0000000000
HYDROGEN    1.0    .8654562191   1.1478852258    .0000000000
 $END
!
! The optimised VB stationary point on NSERCH = 4 is:-
! NITROGEN    7.0    -0.0011497904        0.0111731042        0.0000000000
! CARBON      6.0     1.2316964507       -0.0067086624        0.0000000000
! HYDROGEN    1.0     0.8553407507        1.1433601516        0.0000000000
!
! The VB saddle point is not far from the HF saddle point.
!
! Note that in the VB2000 data below, we have to use $LMOGRPMODIFY
! as the highest LMO or MO is pi. 
!
 $VB2000
#! VB(2)/STO-3G 

HYDROGEN CYANIDE...STO-3G..IRC

0 1

 $DAMPROT
 0.5

 $ROTATION
 3

 $MACROITER
 200

 $ECONV
 7

 $LMOGRPMODIFY
 2
 6,2
 7,1

 $02VBORB
 AO 9
 0.8 AO 11 + 0.2 AO 4

 $VECONLY

 $VECMOS

 $VECLMOS

 $VECINIT

 $END
--- CLOSED SHELL ORBITALS --- GENERATED AT Sun Feb 21 18:29:48 2016
HYDROGEN CYANIDE...STO-3G..IRC                                                  
E(RHF)=      -91.5648510306, E(NUC)=   23.4154954113,   12 ITERS
 $VEC   
 1  1 9.94032236E-01 2.81450300E-02 7.35349251E-03 4.67994290E-04-0.00000000E+00
 1  2 3.94775041E-04-8.24739271E-03 6.36482223E-03 6.69341500E-04-0.00000000E+00
 1  3-1.98323074E-03
 2  1-1.56676884E-04-8.23097011E-03-3.72073421E-03 7.49022474E-04 0.00000000E+00
 2  2 9.92929580E-01 3.13196359E-02-8.57497803E-03 3.53337950E-03 0.00000000E+00
 2  3-6.66903233E-03
 3  1-1.94448317E-01 6.23367706E-01 2.24953104E-01 2.84788199E-02-0.00000000E+00
 3  2-1.50084223E-01 3.36237623E-01-1.92626413E-01 4.15055625E-02-0.00000000E+00
 3  3 9.85226176E-02
 4  1-1.54259431E-01 6.96277056E-01-2.67979983E-01-1.66313169E-01 0.00000000E+00
 4  2 1.29793873E-01-4.58711333E-01-1.08741363E-01-2.50916285E-01 0.00000000E+00
 4  3-3.64514618E-01
 5  1 6.46231623E-02-3.28919656E-01 4.70490602E-01-3.60293789E-01 0.00000000E+00
 5  2-9.99297443E-02 3.59626677E-01-1.21788850E-01-3.43599237E-01 0.00000000E+00
 5  3-3.83889735E-01
 6  1 0.00000000E+00 0.00000000E+00 0.00000000E+00 0.00000000E+00 7.60455897E-01
 6  2 0.00000000E+00 0.00000000E+00 0.00000000E+00 0.00000000E+00 4.85226773E-01
 6  3 0.00000000E+00
 7  1-1.74627696E-02 1.33580193E-01-4.81842460E-01-2.12872985E-01-0.00000000E+00
 7  2-1.35789066E-01 6.40196609E-01 5.72829619E-01-1.61844013E-01-0.00000000E+00
 7  3-6.65108647E-03
 8  1-1.63556833E-02 1.07156508E-01 8.86399061E-02 9.37097923E-01 0.00000000E+00
 8  2-5.28835786E-02 2.52941221E-01 1.32859109E-01-3.24052889E-01 0.00000000E+00
 8  3-5.23976577E-01
 9  1-0.00000000E+00-0.00000000E+00-0.00000000E+00-0.00000000E+00-6.99815944E-01
 9  2-0.00000000E+00-0.00000000E+00-0.00000000E+00-0.00000000E+00 9.12463975E-01
 9  3-0.00000000E+00
10  1 4.06566986E-02-2.33805207E-01-1.30239281E-01 9.68621011E-02 0.00000000E+00
10  2 5.99925899E-02-3.30270960E-01-1.35252546E-01-9.85506306E-01 0.00000000E+00
10  3 9.93012666E-01
11  1-1.18503865E-01 1.04055929E+00 1.04778645E+00-6.03270581E-02 0.00000000E+00
11  2 1.46679807E-01-1.13419675E+00 1.20156138E+00-1.12410582E-01 0.00000000E+00
11  3 2.85381063E-01
 $END   
 $HESS
ENERGY IS      -91.5648510306 E(NUC) IS       23.4154954113
 1  1 1.10665699E+00 1.58941062E-02 0.00000000E+00-1.09175970E+00-7.45660744E-03
 1  2 0.00000000E+00-1.48973431E-02-8.43722961E-03 0.00000000E+00
 2  1 1.58941062E-02-2.42593102E-02 0.00000000E+00-6.70422620E-02 1.06160713E-01
 2  2 0.00000000E+00 5.11482160E-02-8.19015341E-02 0.00000000E+00
 3  1 0.00000000E+00 0.00000000E+00-2.03549053E-08 0.00000000E+00 0.00000000E+00
 3  2-1.24975592E-07 0.00000000E+00 0.00000000E+00 6.27416934E-07
 4  1-1.09175970E+00-6.70422620E-02 0.00000000E+00 1.02817225E+00 4.01661646E-02
 4  2 0.00000000E+00 6.35874444E-02 2.68754881E-02 0.00000000E+00
 5  1-7.45660744E-03 1.06160713E-01 0.00000000E+00 4.01661646E-02 1.52947465E-01
 5  2 0.00000000E+00-3.27095315E-02-2.59108001E-01 0.00000000E+00
 6  1 0.00000000E+00 0.00000000E+00-1.24975592E-07 0.00000000E+00 0.00000000E+00
 6  2-1.60761912E-07 0.00000000E+00 0.00000000E+00-4.12640476E-07
 7  1-1.48973431E-02 5.11482160E-02 0.00000000E+00 6.35874444E-02-3.27095315E-02
 7  2 0.00000000E+00-4.86900429E-02-1.84383444E-02 0.00000000E+00
 8  1-8.43722961E-03-8.19015341E-02 0.00000000E+00 2.68754881E-02-2.59108001E-01
 8  2 0.00000000E+00-1.84383444E-02 3.41009491E-01 0.00000000E+00
 9  1 0.00000000E+00 0.00000000E+00 6.27416934E-07 0.00000000E+00 0.00000000E+00
 9  2-4.12640476E-07 0.00000000E+00 0.00000000E+00 1.51937227E-09
 $END
