! GAMESS/VB2000 Test 32
!
! This is similar to exam-vb28, but the SC calculation on benzene
! follows a GUGA based CISD calculation. As with exam-vb28, the
! SC(6) can be replaced by VB(6) and activating the $VB2STR line
! to get correct coefficients for the Rumer structures.
!
! The RHF energy is -230.6240652238
!
! The CI energy is -230.6899005689
!
! The final VB energy is -230.6936990558
!
 $CONTRL SCFTYP=RHF CITYP=GUGA RUNTYP=ENERGY COORD=UNIQUE 
  VBTYP=VB2000 $END
 $SYSTEM TIMLIM=200000 MEMORY=20000000 $END
 $BASIS  GBASIS=N31 NGAUSS=6 $END
 $CIDRT SOCI=.TRUE. NFZC=18 NDOC=3 NEXT=-1 MXNINT=3245262 $END
 $GUESS  GUESS=MOREAD NORB=66 PURIFY=.TRUE.
  NORDER=1 IORDER(17)=18,19,17,20,21,22,23,30,24,25,26,27,28,29 $END
 $DATA  
C6H6 6-31G (Robert Gora's geometry)                                           
C1       0
C1          6.0      1.3961000008      0.0000000000      0.0000000000
C2          6.0      0.6980500001     -1.2090580665      0.0000000000
C3          6.0     -0.6980500001     -1.2090580665      0.0000000000
C4          6.0     -1.3961000008      0.0000000000      0.0000000000
C5          6.0     -0.6980500001      1.2090580665      0.0000000000
C6          6.0      0.6980500001      1.2090580665      0.0000000000
H1          1.0      1.2360000006     -2.1408147992      0.0000000000
H2          1.0     -1.2360000006     -2.1408147992      0.0000000000
H3          1.0     -2.4720000012      0.0000000000      0.0000000000
H4          1.0     -1.2360000006      2.1408147992      0.0000000000
H5          1.0      1.2360000006      2.1408147992      0.0000000000
H6          1.0      2.4720000012      0.0000000000      0.0000000000
 $END      
 $VB2000

#! SC(6)/6-31G PRINTALL 
 
C6H6 6-31G (Robert Gora's geometry)
  
0 1

 $MEMORY
 50000000

 $CMAXCUT
 0.0

 $NOTROT
 1
 1 2

 $MACROITER
 100

 $SCVBSCF
 0.0001,55

 $GRPDIM
 18,6

 $02VBORB
 1^
 2^
 3^
 4^
 5^
 6^

 02VBSTR
 5
 1 2  3 4  5 6
 1 6  2 3  4 5
 1 2  3 6  4 5
 2 3  1 4  5 6
 3 4  2 5  1 6

 $ECONV
 7

 $END
--- CLOSED SHELL ORBITALS --- GENERATED AT Mon Jan 26 07:48:13 2015
C6H6 6-31G Robert Gora's geometry)                                              
E(RHF)=     -230.6240652238, E(NUC)=  203.5660483053,    8 ITERS
 $VEC   
 1  1 4.06516828E-01 9.40320479E-03 6.42496255E-05 3.47891989E-11 0.00000000E+00
 1  2-2.87987511E-03-4.78780015E-04-9.08900580E-10 0.00000000E+00 4.06516239E-01
 1  3 9.40318952E-03 3.21249401E-05-5.56421309E-05 0.00000000E+00-2.87986132E-03
 1  4-2.39390098E-04 4.14639764E-04 0.00000000E+00 4.06515778E-01 9.40317743E-03
 1  5-3.21250869E-05-5.56423126E-05 0.00000000E+00-2.87985030E-03 2.39392144E-04
 1  6 4.14641578E-04 0.00000000E+00 4.06516828E-01 9.40320479E-03-6.42496255E-05
 1  7-3.47891998E-11 0.00000000E+00-2.87987511E-03 4.78780015E-04 9.08900573E-10
 1  8 0.00000000E+00 4.06516239E-01 9.40318952E-03-3.21249401E-05 5.56421309E-05
 1  9 0.00000000E+00-2.87986132E-03 2.39390098E-04-4.14639764E-04 0.00000000E+00
 1 10 4.06515778E-01 9.40317743E-03 3.21250869E-05 5.56423126E-05 0.00000000E+00
 1 11-2.87985030E-03-2.39392144E-04-4.14641578E-04 0.00000000E+00-1.55637230E-04
 1 12 1.17974207E-03-1.55637114E-04 1.17974154E-03-1.55637436E-04 1.17974256E-03
 1 13-1.55637230E-04 1.17974207E-03-1.55637114E-04 1.17974154E-03-1.55637436E-04
 1 14 1.17974256E-03
 2  1-5.32633774E-01-1.30587011E-02 1.78394011E-04-1.05323428E-04-0.00000000E+00
 2  2 6.03323347E-03-5.22025240E-04 6.76390099E-04-0.00000000E+00-4.53996628E-01
 2  3-1.11307343E-02 2.24566513E-04-4.59255676E-05-0.00000000E+00 5.14247051E-03
 2  4-1.17638859E-03-1.65414106E-04-0.00000000E+00 7.86357903E-02 1.92792977E-03
 2  5 2.52919910E-04-1.15611808E-04-0.00000000E+00-8.90703358E-04-1.57821976E-03
 2  6 8.22202356E-04-0.00000000E+00 5.32633774E-01 1.30587011E-02 1.78394011E-04
 2  7-1.05323428E-04-0.00000000E+00-6.03323347E-03-5.22025240E-04 6.76390099E-04
 2  8-0.00000000E+00 4.53996628E-01 1.11307343E-02 2.24566513E-04-4.59255676E-05
 2  9-0.00000000E+00-5.14247051E-03-1.17638859E-03-1.65414106E-04-0.00000000E+00
 2 10-7.86357903E-02-1.92792977E-03 2.52919910E-04-1.15611808E-04-0.00000000E+00
 2 11 8.90703358E-04-1.57821976E-03 8.22202356E-04-0.00000000E+00 1.91771722E-04
 2 12-8.43603573E-04-3.32164905E-05 1.46119723E-04-2.24988710E-04 9.89722258E-04
 2 13-1.91771722E-04 8.43603573E-04 3.32164905E-05-1.46119723E-04 2.24988710E-04
 2 14-9.89722258E-04
 3  1-2.16715068E-01-5.31325246E-03 7.25840372E-05 2.58859983E-04-0.00000000E+00
 3  2 2.45477715E-03-2.12403132E-04-1.66240644E-03-0.00000000E+00 3.52917035E-01
 3  3 8.65254613E-03 1.31981302E-04 2.12687187E-04-0.00000000E+00-3.99755792E-03
 3  4-1.05418988E-03-1.00803662E-03-0.00000000E+00 5.69630941E-01 1.39657662E-02
 3  5 6.22953760E-05 1.84333428E-04-0.00000000E+00-6.45227784E-03-6.65841762E-05
 3  6-6.06193174E-04-0.00000000E+00 2.16715068E-01 5.31325246E-03 7.25840372E-05
 3  7 2.58859983E-04-0.00000000E+00-2.45477715E-03-2.12403132E-04-1.66240644E-03
 3  8-0.00000000E+00-3.52917035E-01-8.65254613E-03 1.31981302E-04 2.12687187E-04
 3  9-0.00000000E+00 3.99755792E-03-1.05418988E-03-1.00803662E-03-0.00000000E+00
 3 10-5.69630941E-01-1.39657662E-02 6.22953760E-05 1.84333428E-04-0.00000000E+00
 3 11 6.45227784E-03-6.65841762E-05-6.06193174E-04-0.00000000E+00-1.49074776E-04
 3 12 6.55778159E-04-2.40616416E-04 1.05847187E-03-9.15421863E-05 4.02691812E-04
 3 13 1.49074776E-04-6.55778159E-04 2.40616416E-04-1.05847187E-03 9.15421863E-05
 3 14-4.02691812E-04
 4  1 5.53639482E-01 1.44609558E-02-2.89364546E-04-1.07363275E-05-0.00000000E+00
 4  2-1.31407313E-02 3.16284919E-03 5.12629441E-04-0.00000000E+00-4.12126376E-01
 4  3-1.07646592E-02 8.38159673E-05-2.00332694E-04-0.00000000E+00 9.78188324E-03
 4  4-3.67760638E-05 2.69740006E-03-0.00000000E+00-1.41514067E-01-3.69631864E-03
 4  5-3.79905931E-06-8.32121082E-05-0.00000000E+00 3.35885438E-03-1.18015485E-03
 4  6 1.61487265E-03-0.00000000E+00 5.53639482E-01 1.44609558E-02 2.89364546E-04
 4  7 1.07363275E-05-0.00000000E+00-1.31407313E-02-3.16284919E-03-5.12629441E-04
 4  8-0.00000000E+00-4.12126376E-01-1.07646592E-02-8.38159673E-05 2.00332694E-04
 4  9-0.00000000E+00 9.78188324E-03 3.67760638E-05-2.69740006E-03-0.00000000E+00
 4 10-1.41514067E-01-3.69631864E-03 3.79905931E-06 8.32121082E-05-0.00000000E+00
 4 11 3.35885438E-03 1.18015485E-03-1.61487265E-03-0.00000000E+00 1.13299387E-04
 4 12-4.63664453E-04 3.89042328E-05-1.59211267E-04-1.52203335E-04 6.22873453E-04
 4 13 1.13299387E-04-4.63664453E-04 3.89042328E-05-1.59211267E-04-1.52203335E-04
 4 14 6.22873453E-04
 5  1-1.56237803E-01-4.08090169E-03 8.16591948E-05-3.80449279E-05 0.00000000E+00
 5  2 3.70833520E-03-8.92561590E-04 1.81653597E-03 0.00000000E+00-4.01346803E-01
 5  3-1.04831009E-02 1.29410008E-04-1.67503803E-04 0.00000000E+00 9.52603910E-03
 5  4-2.31746842E-03 1.30953802E-03 0.00000000E+00 5.57585464E-01 1.45640223E-02
 5  5 1.54135077E-04 2.47520583E-04 0.00000000E+00-1.32343802E-02-1.99480474E-03
 5  6-2.52646824E-03 0.00000000E+00-1.56237803E-01-4.08090169E-03-8.16591948E-05
 5  7 3.80449279E-05 0.00000000E+00 3.70833520E-03 8.92561590E-04-1.81653597E-03
 5  8 0.00000000E+00-4.01346803E-01-1.04831009E-02-1.29410008E-04 1.67503803E-04
 5  9 0.00000000E+00 9.52603910E-03 2.31746842E-03-1.30953802E-03 0.00000000E+00
 5 10 5.57585464E-01 1.45640223E-02-1.54135077E-04-2.47520583E-04 0.00000000E+00
 5 11-1.32343802E-02 1.99480474E-03 2.52646824E-03 0.00000000E+00 1.10335885E-04
 5 12-4.51535947E-04-1.53288164E-04 6.27313704E-04 4.29519588E-05-1.75775379E-04
 5 13 1.10335885E-04-4.51535947E-04-1.53288164E-04 6.27313704E-04 4.29519588E-05
 5 14-1.75775379E-04
 6  1 4.06917962E-01 1.14730593E-02-2.63560185E-04 1.45446340E-10-0.00000000E+00
 6  2-2.17691979E-02 9.06299980E-03-9.05641410E-10-0.00000000E+00-4.06918928E-01
 6  3-1.14730829E-02 1.31780508E-04-2.28249835E-04-0.00000000E+00 2.17692079E-02
 6  4-4.53150212E-03 7.84878771E-03-0.00000000E+00 4.06919390E-01 1.14730942E-02
 6  5 1.31780465E-04 2.28250025E-04-0.00000000E+00-2.17692133E-02-4.53150153E-03
 6  6-7.84878848E-03-0.00000000E+00-4.06917962E-01-1.14730593E-02-2.63560185E-04
 6  7 1.45446339E-10-0.00000000E+00 2.17691979E-02 9.06299980E-03-9.05643655E-10
 6  8-0.00000000E+00 4.06918928E-01 1.14730829E-02 1.31780508E-04-2.28249835E-04
 6  9-0.00000000E+00-2.17692079E-02-4.53150212E-03 7.84878771E-03-0.00000000E+00
 6 10-4.06919390E-01-1.14730942E-02 1.31780465E-04 2.28250025E-04-0.00000000E+00
 6 11 2.17692133E-02-4.53150153E-03-7.84878848E-03-0.00000000E+00 2.27900250E-04
 6 12 9.44263787E-04-2.27900447E-04-9.44262864E-04 2.27899797E-04 9.44265651E-04
 6 13-2.27900250E-04-9.44263787E-04 2.27900447E-04 9.44262864E-04-2.27899797E-04
 6 14-9.44265651E-04
 7  1-9.26313966E-02 1.82375229E-01-6.19177754E-02 4.87816896E-10 0.00000000E+00
 7  2 1.09126327E-01-7.69894402E-03 4.65062565E-10 0.00000000E+00-9.26313963E-02
 7  3 1.82375228E-01-3.09588876E-02 5.36223660E-02 0.00000000E+00 1.09126325E-01
 7  4-3.84947155E-03 6.66748108E-03 0.00000000E+00-9.26313962E-02 1.82375228E-01
 7  5 3.09588885E-02 5.36223664E-02 0.00000000E+00 1.09126324E-01 3.84946997E-03
 7  6 6.66747672E-03 0.00000000E+00-9.26313966E-02 1.82375229E-01 6.19177754E-02
 7  7-4.87816774E-10 0.00000000E+00 1.09126327E-01 7.69894402E-03-4.65062543E-10
 7  8 0.00000000E+00-9.26313963E-02 1.82375228E-01 3.09588876E-02-5.36223660E-02
 7  9 0.00000000E+00 1.09126325E-01 3.84947155E-03-6.66748108E-03 0.00000000E+00
 7 10-9.26313962E-02 1.82375228E-01-3.09588885E-02-5.36223664E-02 0.00000000E+00
 7 11 1.09126324E-01-3.84946997E-03-6.66747672E-03 0.00000000E+00 3.65054061E-02
 7 12 4.76550616E-03 3.65054062E-02 4.76550306E-03 3.65054063E-02 4.76550527E-03
 7 13 3.65054061E-02 4.76550616E-03 3.65054062E-02 4.76550306E-03 3.65054063E-02
 7 14 4.76550527E-03
 8  1 1.28568947E-01-2.58387119E-01 3.13882113E-02-8.24459793E-03 0.00000000E+00
 8  2-1.93709638E-01-2.84553576E-03-7.21171057E-04 0.00000000E+00 5.62797747E-02
 8  3-1.13106387E-01-8.27107766E-02-6.36185325E-02 0.00000000E+00-8.47944375E-02
 8  4-8.45861244E-03-3.44525901E-03 0.00000000E+00-7.22891712E-02 1.45280734E-01
 8  5-7.36165167E-02 6.28810574E-02 0.00000000E+00 1.08915147E-01-8.01122427E-03
 8  6 2.77781677E-03 0.00000000E+00-1.28568947E-01 2.58387119E-01 3.13882113E-02
 8  7-8.24459793E-03 0.00000000E+00 1.93709638E-01-2.84553576E-03-7.21171057E-04
 8  8 0.00000000E+00-5.62797747E-02 1.13106387E-01-8.27107766E-02-6.36185325E-02
 8  9 0.00000000E+00 8.47944375E-02-8.45861244E-03-3.44525901E-03 0.00000000E+00
 8 10 7.22891712E-02-1.45280734E-01-7.36165167E-02 6.28810574E-02 0.00000000E+00
 8 11-1.08915147E-01-8.01122427E-03 2.77781677E-03 0.00000000E+00-3.42449275E-02
 8 12-7.09215360E-03 4.39862717E-02 9.10959474E-03 7.82312013E-02 1.62017617E-02
 8 13 3.42449275E-02 7.09215360E-03-4.39862717E-02-9.10959474E-03-7.82312013E-02
 8 14-1.62017617E-02
 9  1-9.24302930E-03 1.85758674E-02-2.25654907E-03-1.14680934E-01-0.00000000E+00
 9  2 1.39260941E-02 2.04573273E-04-1.00313640E-02-0.00000000E+00-1.15965488E-01
 9  3 2.33057744E-01-5.76304842E-02-5.81944292E-04-0.00000000E+00 1.74720504E-01
 9  4-2.51952883E-03-4.41830657E-03-0.00000000E+00-1.06722459E-01 2.14481876E-01
 9  5 6.88691063E-02-9.67620371E-03-0.00000000E+00 1.60794400E-01 3.70356872E-03
 9  6-4.86570044E-03-0.00000000E+00 9.24302930E-03-1.85758674E-02-2.25654907E-03
 9  7-1.14680934E-01-0.00000000E+00-1.39260941E-02 2.04573273E-04-1.00313640E-02
 9  8-0.00000000E+00 1.15965488E-01-2.33057744E-01-5.76304842E-02-5.81944292E-04
 9  9-0.00000000E+00-1.74720504E-01-2.51952883E-03-4.41830657E-03-0.00000000E+00
 9 10 1.06722459E-01-2.14481876E-01 6.88691063E-02-9.67620371E-03-0.00000000E+00
 9 11-1.60794400E-01 3.70356872E-03-4.86570044E-03-0.00000000E+00 7.05622907E-02
 9 12 1.46135202E-02 6.49381232E-02 1.34487477E-02-5.62416750E-03-1.16477013E-03
 9 13-7.05622907E-02-1.46135202E-02-6.49381232E-02-1.34487477E-02 5.62416750E-03
 9 14 1.16477013E-03
10  1-9.89419649E-02 2.02277716E-01 6.13606296E-02 4.07411123E-02-0.00000000E+00
10  2 1.79401488E-01 4.38375848E-02 8.82796399E-03-0.00000000E+00 6.66516944E-02
10  3-1.36263237E-01 1.14083658E-01 1.13596053E-01-0.00000000E+00-1.20852797E-01
10  4 1.44330451E-02 4.24323143E-02-0.00000000E+00 3.22902705E-02-6.60144787E-02
10  5-1.60021422E-01 1.15511736E-01-0.00000000E+00-5.85486886E-02-2.96904477E-02
10  6 3.36616768E-02-0.00000000E+00-9.89419649E-02 2.02277716E-01-6.13606296E-02
10  7-4.07411123E-02-0.00000000E+00 1.79401488E-01-4.38375848E-02-8.82796399E-03
10  8-0.00000000E+00 6.66516944E-02-1.36263237E-01-1.14083658E-01-1.13596053E-01
10  9-0.00000000E+00-1.20852797E-01-1.44330451E-02-4.24323143E-02-0.00000000E+00
10 10 3.22902705E-02-6.60144787E-02 1.60021422E-01-1.15511736E-01-0.00000000E+00
10 11-5.85486886E-02 2.96904477E-02-3.36616768E-02-0.00000000E+00-7.69812059E-02
10 12-2.62299329E-02-3.72945355E-02-1.27074293E-02 1.14275741E-01 3.89373607E-02
10 13-7.69812059E-02-2.62299329E-02-3.72945355E-02-1.27074293E-02 1.14275741E-01
10 14 3.89373607E-02
11  1-1.98385772E-02 4.05581400E-02 1.23032489E-02-2.03190263E-01-0.00000000E+00
11  2 3.59712923E-02 8.78975243E-03-4.40281669E-02-0.00000000E+00-7.57669666E-02
11  3 1.54898568E-01 1.42033917E-01 2.77459771E-02-0.00000000E+00 1.37380609E-01
11  4 4.24705518E-02-1.42424354E-02-0.00000000E+00 9.56055439E-02-1.95456708E-01
11  5 8.70738735E-02 1.81917871E-02-0.00000000E+00-1.73351902E-01 3.36234745E-02
11  6 2.94998295E-02-0.00000000E+00-1.98385772E-02 4.05581400E-02-1.23032489E-02
11  7 2.03190263E-01-0.00000000E+00 3.59712923E-02-8.78975243E-03 4.40281669E-02
11  8-0.00000000E+00-7.57669666E-02 1.54898568E-01-1.42033917E-01-2.77459771E-02
11  9-0.00000000E+00 1.37380609E-01-4.24705518E-02 1.42424354E-02-0.00000000E+00
11 10 9.56055439E-02-1.95456708E-01-8.70738735E-02-1.81917871E-02-0.00000000E+00
11 11-1.73351902E-01-3.36234745E-02-2.94998295E-02-0.00000000E+00 8.75091391E-02
11 12 2.98171302E-02-1.10422250E-01-3.76243505E-02 2.29131099E-02 7.80722143E-03
11 13 8.75091391E-02 2.98171302E-02-1.10422250E-01-3.76243505E-02 2.29131099E-02
11 14 7.80722143E-03
12  1-8.88067447E-03 1.77134284E-02 1.94571455E-01-1.13765567E-09-0.00000000E+00
12  2 3.58162419E-02 7.16139477E-02-2.71323251E-09-0.00000000E+00-8.88067508E-03
12  3 1.77134315E-02 9.72857271E-02-1.68503824E-01-0.00000000E+00 3.58162361E-02
12  4 3.58069715E-02-6.20194993E-02-0.00000000E+00-8.88067511E-03 1.77134310E-02
12  5-9.72857285E-02-1.68503823E-01-0.00000000E+00 3.58162403E-02-3.58069736E-02
12  6-6.20194963E-02-0.00000000E+00-8.88067447E-03 1.77134284E-02-1.94571455E-01
12  7 1.13765567E-09-0.00000000E+00 3.58162419E-02-7.16139477E-02 2.71323253E-09
12  8-0.00000000E+00-8.88067508E-03 1.77134315E-02-9.72857271E-02 1.68503824E-01
12  9-0.00000000E+00 3.58162361E-02-3.58069715E-02 6.20194993E-02-0.00000000E+00
12 10-8.88067511E-03 1.77134310E-02 9.72857285E-02 1.68503823E-01-0.00000000E+00
12 11 3.58162403E-02 3.58069736E-02 6.20194963E-02-0.00000000E+00 1.11547171E-01
12 12 6.29514106E-02 1.11547172E-01 6.29514099E-02 1.11547171E-01 6.29514078E-02
12 13 1.11547171E-01 6.29514106E-02 1.11547172E-01 6.29514099E-02 1.11547171E-01
12 14 6.29514078E-02
13  1-5.65912756E-02 1.23056250E-01 1.30912130E-01-6.97616909E-09-0.00000000E+00
13  2 2.63444429E-02 1.56448399E-01-2.63842555E-09-0.00000000E+00 5.65912758E-02
13  3-1.23056251E-01-6.54560596E-02 1.13373231E-01-0.00000000E+00-2.63444345E-02
13  4-7.82242013E-02 1.35488283E-01-0.00000000E+00-5.65912758E-02 1.23056252E-01
13  5-6.54560693E-02-1.13373226E-01-0.00000000E+00 2.63444343E-02-7.82242057E-02
13  6-1.35488286E-01-0.00000000E+00 5.65912756E-02-1.23056250E-01 1.30912130E-01
13  7-6.97617027E-09-0.00000000E+00-2.63444429E-02 1.56448399E-01-2.63842773E-09
13  8-0.00000000E+00-5.65912758E-02 1.23056251E-01-6.54560596E-02 1.13373231E-01
13  9-0.00000000E+00 2.63444345E-02-7.82242013E-02 1.35488283E-01-0.00000000E+00
13 10 5.65912758E-02-1.23056252E-01-6.54560693E-02-1.13373226E-01-0.00000000E+00
13 11-2.63444343E-02-7.82242057E-02-1.35488286E-01-0.00000000E+00-1.41147737E-01
13 12-5.40757890E-02 1.41147737E-01 5.40757843E-02-1.41147738E-01-5.40757867E-02
13 13 1.41147737E-01 5.40757890E-02-1.41147737E-01-5.40757843E-02 1.41147738E-01
13 14 5.40757867E-02
14  1-1.14870268E-09 2.99451238E-09 2.74766950E-10 2.75192068E-01 0.00000000E+00
14  2-1.62360718E-09 2.07653139E-09 9.30810393E-02 0.00000000E+00 8.67758168E-10
14  3-3.27015521E-09-2.38323328E-01-1.37596028E-01 0.00000000E+00 4.37612278E-09
14  4-8.06105352E-02-4.65405114E-02 0.00000000E+00-1.51442438E-09 1.63349719E-09
14  5 2.38323326E-01-1.37596034E-01 0.00000000E+00 9.65394646E-09 8.06105390E-02
14  6-4.65405163E-02 0.00000000E+00 1.14870277E-09-2.99451222E-09 2.74766690E-10
14  7 2.75192068E-01 0.00000000E+00 1.62360540E-09 2.07653053E-09 9.30810393E-02
14  8 0.00000000E+00-8.67758133E-10 3.27015496E-09-2.38323328E-01-1.37596028E-01
14  9 0.00000000E+00-4.37612172E-09-8.06105352E-02-4.65405114E-02 0.00000000E+00
14 10 1.51442425E-09-1.63349703E-09 2.38323326E-01-1.37596034E-01 0.00000000E+00
14 11-9.65394571E-09 8.06105390E-02-4.65405163E-02 0.00000000E+00-6.00141529E-09
14 12-5.11000478E-09 1.14274007E-09 1.99233359E-09-2.33894999E-09-1.18927475E-09
14 13 6.00141539E-09 5.11000492E-09-1.14274013E-09-1.99233347E-09 2.33895018E-09
14 14 1.18927459E-09
15  1 1.91949132E-02-4.56275232E-02 2.95196930E-01 1.53010412E-02 0.00000000E+00
15  2-4.09572925E-02 1.23852214E-01 2.66526892E-03 0.00000000E+00 1.26828707E-02
15  3-3.01479801E-02 4.23218708E-02-2.00788384E-01 0.00000000E+00-2.70622398E-02
15  4 3.13014908E-02-7.64221939E-02 0.00000000E+00-6.51204325E-03 1.54795323E-02
15  5-1.83795253E-02 1.26252551E-01 0.00000000E+00 1.38951741E-02 9.08514476E-03
15  6 4.32728863E-02 0.00000000E+00-1.91949132E-02 4.56275232E-02 2.95196930E-01
15  7 1.53010412E-02 0.00000000E+00 4.09572925E-02 1.23852214E-01 2.66526892E-03
15  8 0.00000000E+00-1.26828707E-02 3.01479801E-02 4.23218708E-02-2.00788384E-01
15  9 0.00000000E+00 2.70622398E-02 3.13014908E-02-7.64221939E-02 0.00000000E+00
15 10 6.51204325E-03-1.54795323E-02-1.83795253E-02 1.26252551E-01 0.00000000E+00
15 11-1.38951741E-02 9.08514476E-03 4.32728863E-02 0.00000000E+00 1.09511580E-01
15 12 8.17932631E-02-5.62289226E-02-4.19968966E-02-1.65740503E-01-1.23790181E-01
15 13-1.09511580E-01-8.17932631E-02 5.62289226E-02 4.19968966E-02 1.65740503E-01
15 14 1.23790181E-01
16  1 3.56272885E-03-8.46883190E-03 5.47909001E-02-8.24374173E-02-0.00000000E+00
16  2-7.60200513E-03 2.29879578E-02-1.43596787E-02-0.00000000E+00-1.48419182E-02
16  3 3.52801775E-02-1.61298519E-01 1.70437647E-01-0.00000000E+00 3.16690815E-02
16  4-5.60994718E-02 7.81910816E-02-0.00000000E+00-1.84046470E-02 4.37490083E-02
16  5 1.65742410E-01 2.31139047E-01-0.00000000E+00 3.92710974E-02 6.35955551E-02
16  6 1.00407437E-01-0.00000000E+00-3.56272885E-03 8.46883190E-03 5.47909001E-02
16  7-8.24374173E-02-0.00000000E+00 7.60200513E-03 2.29879578E-02-1.43596787E-02
16  8-0.00000000E+00 1.48419182E-02-3.52801775E-02-1.61298519E-01 1.70437647E-01
16  9-0.00000000E+00-3.16690815E-02-5.60994718E-02 7.81910816E-02-0.00000000E+00
16 10 1.84046470E-02-4.37490083E-02 1.65742410E-01 2.31139047E-01-0.00000000E+00
16 11-3.92710974E-02 6.35955551E-02 1.00407437E-01-0.00000000E+00-1.28154108E-01
16 12-9.57172208E-02-1.58916864E-01-1.18693658E-01-3.07627570E-02-2.29764434E-02
16 13 1.28154108E-01 9.57172208E-02 1.58916864E-01 1.18693658E-01 3.07627570E-02
16 14 2.29764434E-02
17  1 0.00000000E+00 0.00000000E+00 0.00000000E+00 0.00000000E+00 2.11055298E-01
17  2 0.00000000E+00 0.00000000E+00 0.00000000E+00 1.37710580E-01 0.00000000E+00
17  3 0.00000000E+00 0.00000000E+00 0.00000000E+00 2.11055298E-01 0.00000000E+00
17  4 0.00000000E+00 0.00000000E+00 1.37710580E-01 0.00000000E+00 0.00000000E+00
17  5 0.00000000E+00 0.00000000E+00 2.11055298E-01 0.00000000E+00 0.00000000E+00
17  6 0.00000000E+00 1.37710580E-01 0.00000000E+00 0.00000000E+00 0.00000000E+00
17  7 0.00000000E+00 2.11055298E-01 0.00000000E+00 0.00000000E+00 0.00000000E+00
17  8 1.37710580E-01 0.00000000E+00 0.00000000E+00 0.00000000E+00 0.00000000E+00
17  9 2.11055298E-01 0.00000000E+00 0.00000000E+00 0.00000000E+00 1.37710580E-01
17 10 0.00000000E+00 0.00000000E+00 0.00000000E+00 0.00000000E+00 2.11055298E-01
17 11 0.00000000E+00 0.00000000E+00 0.00000000E+00 1.37710580E-01 0.00000000E+00
17 12 0.00000000E+00 0.00000000E+00 0.00000000E+00 0.00000000E+00 0.00000000E+00
17 13 0.00000000E+00 0.00000000E+00 0.00000000E+00 0.00000000E+00 0.00000000E+00
17 14 0.00000000E+00
18  1 3.22590676E-03-7.94365824E-03 1.73957332E-01-1.66529914E-01 0.00000000E+00
18  2-9.14503444E-03 1.19832353E-01-6.89311605E-02 0.00000000E+00-3.91029315E-03
18  3 9.62893119E-03-1.85205433E-01 1.36555158E-01 0.00000000E+00 1.10851827E-02
18  4-1.05648148E-01 1.06730248E-01 0.00000000E+00 6.84386396E-04-1.68527193E-03
18  5 2.05540281E-01-1.61283676E-01 0.00000000E+00-1.94014932E-03 8.00053084E-02
18  6-7.55468383E-02 0.00000000E+00 3.22590676E-03-7.94365824E-03-1.73957332E-01
18  7 1.66529914E-01 0.00000000E+00-9.14503444E-03-1.19832353E-01 6.89311605E-02
18  8 0.00000000E+00-3.91029315E-03 9.62893119E-03 1.85205433E-01-1.36555158E-01
18  9 0.00000000E+00 1.10851827E-02 1.05648148E-01-1.06730248E-01 0.00000000E+00
18 10 6.84386396E-04-1.68527193E-03-2.05540281E-01 1.61283676E-01 0.00000000E+00
18 11-1.94014932E-03-8.00053084E-02 7.55468383E-02 0.00000000E+00-1.58810269E-01
18 12-1.20144043E-01 2.77952652E-02 2.10278332E-02 1.31015005E-01 9.91162109E-02
18 13-1.58810269E-01-1.20144043E-01 2.77952652E-02 2.10278332E-02 1.31015005E-01
18 14 9.91162109E-02
19  1-2.65273983E-03 6.53225962E-03-1.43049253E-01-2.02511365E-01-0.00000000E+00
19  2 7.52017995E-03-9.85409950E-02-8.38248409E-02-0.00000000E+00-1.46734737E-03
19  3 3.61328097E-03 1.73024007E-01 1.91263265E-01-0.00000000E+00 4.15974462E-03
19  4 6.07419329E-02 9.80090535E-02-0.00000000E+00 4.12008690E-03-1.01455384E-02
19  5-1.48295489E-01-1.70928416E-01-0.00000000E+00-1.16799226E-02-9.19253219E-02
19  6-1.23651915E-01-0.00000000E+00-2.65273983E-03 6.53225962E-03 1.43049253E-01
19  7 2.02511365E-01-0.00000000E+00 7.52017995E-03 9.85409950E-02 8.38248409E-02
19  8-0.00000000E+00-1.46734737E-03 3.61328097E-03-1.73024007E-01-1.91263265E-01
19  9-0.00000000E+00 4.15974462E-03-6.07419329E-02-9.80090535E-02-0.00000000E+00
19 10 4.12008690E-03-1.01455384E-02 1.48295489E-01 1.70928416E-01-0.00000000E+00
19 11-1.16799226E-02 9.19253219E-02 1.23651915E-01-0.00000000E+00-5.95939456E-02
19 12-4.50843501E-02 1.67330700E-01 1.26589965E-01-1.07736756E-01-8.15056187E-02
19 13-5.95939456E-02-4.50843501E-02 1.67330700E-01 1.26589965E-01-1.07736756E-01
19 14-8.15056187E-02
20  1-0.00000000E+00-0.00000000E+00-0.00000000E+00-0.00000000E+00-2.44945839E-01
20  2-0.00000000E+00-0.00000000E+00-0.00000000E+00-2.09994870E-01-0.00000000E+00
20  3-0.00000000E+00-0.00000000E+00-0.00000000E+00 5.13670805E-02-0.00000000E+00
20  4-0.00000000E+00-0.00000000E+00 4.40375883E-02-0.00000000E+00-0.00000000E+00
20  5-0.00000000E+00-0.00000000E+00 2.96312921E-01-0.00000000E+00-0.00000000E+00
20  6-0.00000000E+00 2.54032458E-01-0.00000000E+00-0.00000000E+00-0.00000000E+00
20  7-0.00000000E+00 2.44945839E-01-0.00000000E+00-0.00000000E+00-0.00000000E+00
20  8 2.09994870E-01-0.00000000E+00-0.00000000E+00-0.00000000E+00-0.00000000E+00
20  9-5.13670805E-02-0.00000000E+00-0.00000000E+00-0.00000000E+00-4.40375883E-02
20 10-0.00000000E+00-0.00000000E+00-0.00000000E+00-0.00000000E+00-2.96312921E-01
20 11-0.00000000E+00-0.00000000E+00-0.00000000E+00-2.54032458E-01-0.00000000E+00
20 12-0.00000000E+00-0.00000000E+00-0.00000000E+00-0.00000000E+00-0.00000000E+00
20 13-0.00000000E+00-0.00000000E+00-0.00000000E+00-0.00000000E+00-0.00000000E+00
20 14-0.00000000E+00
21  1 0.00000000E+00 0.00000000E+00 0.00000000E+00 0.00000000E+00-2.00733142E-01
21  2 0.00000000E+00 0.00000000E+00 0.00000000E+00-1.72090822E-01 0.00000000E+00
21  3 0.00000000E+00 0.00000000E+00 0.00000000E+00-3.12495891E-01 0.00000000E+00
21  4 0.00000000E+00 0.00000000E+00-2.67906302E-01 0.00000000E+00 0.00000000E+00
21  5 0.00000000E+00 0.00000000E+00-1.11762748E-01 0.00000000E+00 0.00000000E+00
21  6 0.00000000E+00-9.58154816E-02 0.00000000E+00 0.00000000E+00 0.00000000E+00
21  7 0.00000000E+00 2.00733142E-01 0.00000000E+00 0.00000000E+00 0.00000000E+00
21  8 1.72090822E-01 0.00000000E+00 0.00000000E+00 0.00000000E+00 0.00000000E+00
21  9 3.12495891E-01 0.00000000E+00 0.00000000E+00 0.00000000E+00 2.67906302E-01
21 10 0.00000000E+00 0.00000000E+00 0.00000000E+00 0.00000000E+00 1.11762748E-01
21 11 0.00000000E+00 0.00000000E+00 0.00000000E+00 9.58154816E-02 0.00000000E+00
21 12 0.00000000E+00 0.00000000E+00 0.00000000E+00 0.00000000E+00 0.00000000E+00
21 13 0.00000000E+00 0.00000000E+00 0.00000000E+00 0.00000000E+00 0.00000000E+00
21 14 0.00000000E+00
22  1-0.00000000E+00-0.00000000E+00-0.00000000E+00-0.00000000E+00-1.57847825E-01
22  2-0.00000000E+00-0.00000000E+00-0.00000000E+00-2.94953962E-01-0.00000000E+00
22  3-0.00000000E+00-0.00000000E+00-0.00000000E+00 3.14012331E-01-0.00000000E+00
22  4-0.00000000E+00-0.00000000E+00 5.86762481E-01-0.00000000E+00-0.00000000E+00
22  5-0.00000000E+00-0.00000000E+00-1.56164506E-01-0.00000000E+00-0.00000000E+00
22  6-0.00000000E+00-2.91808519E-01-0.00000000E+00-0.00000000E+00-0.00000000E+00
22  7-0.00000000E+00-1.57847825E-01-0.00000000E+00-0.00000000E+00-0.00000000E+00
22  8-2.94953962E-01-0.00000000E+00-0.00000000E+00-0.00000000E+00-0.00000000E+00
22  9 3.14012331E-01-0.00000000E+00-0.00000000E+00-0.00000000E+00 5.86762481E-01
22 10-0.00000000E+00-0.00000000E+00-0.00000000E+00-0.00000000E+00-1.56164506E-01
22 11-0.00000000E+00-0.00000000E+00-0.00000000E+00-2.91808519E-01-0.00000000E+00
22 12-0.00000000E+00-0.00000000E+00-0.00000000E+00-0.00000000E+00-0.00000000E+00
22 13-0.00000000E+00-0.00000000E+00-0.00000000E+00-0.00000000E+00-0.00000000E+00
22 14-0.00000000E+00
23  1-0.00000000E+00-0.00000000E+00-0.00000000E+00-0.00000000E+00-2.71456724E-01
23  2-0.00000000E+00-0.00000000E+00-0.00000000E+00-5.07243203E-01-0.00000000E+00
23  3-0.00000000E+00-0.00000000E+00-0.00000000E+00-9.71865161E-04-0.00000000E+00
23  4-0.00000000E+00-0.00000000E+00-1.81602223E-03-0.00000000E+00-0.00000000E+00
23  5-0.00000000E+00-0.00000000E+00 2.72428587E-01-0.00000000E+00-0.00000000E+00
23  6-0.00000000E+00 5.09059226E-01-0.00000000E+00-0.00000000E+00-0.00000000E+00
23  7-0.00000000E+00-2.71456724E-01-0.00000000E+00-0.00000000E+00-0.00000000E+00
23  8-5.07243203E-01-0.00000000E+00-0.00000000E+00-0.00000000E+00-0.00000000E+00
23  9-9.71865161E-04-0.00000000E+00-0.00000000E+00-0.00000000E+00-1.81602223E-03
23 10-0.00000000E+00-0.00000000E+00-0.00000000E+00-0.00000000E+00 2.72428587E-01
23 11-0.00000000E+00-0.00000000E+00-0.00000000E+00 5.09059226E-01-0.00000000E+00
23 12-0.00000000E+00-0.00000000E+00-0.00000000E+00-0.00000000E+00-0.00000000E+00
23 13-0.00000000E+00-0.00000000E+00-0.00000000E+00-0.00000000E+00-0.00000000E+00
23 14-0.00000000E+00
24  1 3.74528795E-02-4.41814431E-02-1.06857542E-01-1.60015431E-10-0.00000000E+00
24  2-5.75083204E-01-3.20061654E-01 1.19833557E-09-0.00000000E+00 3.74528788E-02
24  3-4.41814432E-02-5.34287675E-02 9.25413452E-02-0.00000000E+00-5.75083186E-01
24  4-1.60030823E-01 2.77181520E-01-0.00000000E+00 3.74528787E-02-4.41814425E-02
24  5 5.34287680E-02 9.25413440E-02-0.00000000E+00-5.75083190E-01 1.60030825E-01
24  6 2.77181521E-01-0.00000000E+00 3.74528795E-02-4.41814431E-02 1.06857542E-01
24  7 1.60015467E-10-0.00000000E+00-5.75083204E-01 3.20061654E-01-1.19833555E-09
24  8-0.00000000E+00 3.74528788E-02-4.41814432E-02 5.34287675E-02-9.25413452E-02
24  9-0.00000000E+00-5.75083186E-01 1.60030823E-01-2.77181520E-01-0.00000000E+00
24 10 3.74528787E-02-4.41814425E-02-5.34287680E-02-9.25413440E-02-0.00000000E+00
24 11-5.75083190E-01-1.60030825E-01-2.77181521E-01-0.00000000E+00 3.64879543E-02
24 12 8.03676704E-01 3.64879544E-02 8.03676708E-01 3.64879558E-02 8.03676717E-01
24 13 3.64879543E-02 8.03676704E-01 3.64879544E-02 8.03676708E-01 3.64879558E-02
24 14 8.03676717E-01
25  1-3.75815504E-02 1.41564951E-02 2.03024527E-01 1.03485436E-03 0.00000000E+00
25  2 1.10873877E+00 6.98197148E-01-1.35178136E-02 0.00000000E+00-1.71749047E-02
25  3 6.46957548E-03 6.24724848E-02-7.10680113E-02 0.00000000E+00 5.06697564E-01
25  4-5.05190412E-02-3.97607536E-01 0.00000000E+00 2.04066453E-02-7.68693143E-03
25  5 7.03055912E-02 8.67050589E-02 0.00000000E+00-6.02041049E-01-8.79232797E-03
25  6 4.42844696E-01 0.00000000E+00 3.75815504E-02-1.41564951E-02 2.03024527E-01
25  7 1.03485436E-03 0.00000000E+00-1.10873877E+00 6.98197148E-01-1.35178136E-02
25  8 0.00000000E+00 1.71749047E-02-6.46957548E-03 6.24724848E-02-7.10680113E-02
25  9 0.00000000E+00-5.06697564E-01-5.05190412E-02-3.97607536E-01 0.00000000E+00
25 10-2.04066453E-02 7.68693143E-03 7.03055912E-02 8.67050589E-02 0.00000000E+00
25 11 6.02041049E-01-8.79232797E-03 4.42844696E-01 0.00000000E+00-4.32447649E-03
25 12-6.20613364E-01 5.13819755E-03 7.37391952E-01 9.46267385E-03 1.35800524E+00
25 13 4.32447649E-03 6.20613364E-01-5.13819755E-03-7.37391952E-01-9.46267385E-03
25 14-1.35800524E+00
26  1 1.86584626E-03-7.02841112E-04-1.00797474E-02 2.08438745E-02 0.00000000E+00
26  2-5.50465813E-02-3.46640491E-02-2.72273367E-01 0.00000000E+00 3.34795008E-02
26  3-1.26113064E-02-8.21826136E-02 1.61395918E-01 0.00000000E+00-9.87719205E-01
26  4-4.18753735E-01 4.76442908E-01 0.00000000E+00 3.16136546E-02-1.19084649E-02
26  5 7.55904579E-02 1.53562811E-01 0.00000000E+00-9.32672622E-01 4.21698431E-01
26  6 4.34716207E-01 0.00000000E+00-1.86584626E-03 7.02841112E-04-1.00797474E-02
26  7 2.08438745E-02 0.00000000E+00 5.50465813E-02-3.46640491E-02-2.72273367E-01
26  8 0.00000000E+00-3.34795008E-02 1.26113064E-02-8.21826136E-02 1.61395918E-01
26  9 0.00000000E+00 9.87719205E-01-4.18753735E-01 4.76442908E-01 0.00000000E+00
26 10-3.16136546E-02 1.19084649E-02 7.55904579E-02 1.53562811E-01 0.00000000E+00
26 11 9.32672622E-01 4.21698431E-01 4.34716207E-01 0.00000000E+00 8.42982056E-03