!     Coronene: C24H18 localization test...RHF/ACCD as used in
!       T.Janowski, J.Chem.Theory Comput. 10, 3085-3091(2014)
!     The literature adopted a B3LYP/ACCT geometry, here is only AM1.
!
!     708 AOs, 48 spherical harmonic contaminations are dropped, 
!     doubling QMTTOL drops 13 linear dependencies (default drops 8),
!     keeping 647 MOs.  Of these, 78 MOs are occupied (24 cores).
!
!     raised QMTTOL, FINAL E= -916.032 3860401 in 13 iterations
!         THE FINAL LOCALIZATION SUM IS       89.916331
!     default QMTTOL, FNAL E= -916.032 5803091 in 19 iterations
!     Boys localization converges in 149 iterations to standard tolerance.
!     Pipek/Mezey is harder, needing 344 iterations to standard tolerance.
!
!     Boys generates banana orbitals, as expected.
!
!     Pipek/Mezey orbitals are much more normal 2-center type than
!     indicated in the reference.  The amplitude between 0.10 and 0.05
!     spreads from 2 center bonds onto neighboring atoms.  Surprisingly,
!     the pi orbitals end up being 6 C3C3 and 6 C1C2 two center orbs.
!
!     this run takes 293 seconds on p=6 of 3.5 GHz Gulftown (5 Nov 2014)
!
 $contrl scftyp=rhf runtyp=energy local=pop ispher=1
         qmttol=2d-6 icut=11 $end
 $system mwords=50 memddi=0 $end
 $guess  guess=huckel $end
 $scf    dirscf=.true. fdiff=.false. $end
 $basis  gbasis=accd $end
 $local  maxloc=750 $end
 $data
coronene...AM1 coordinates for C1,C2,C3,H are used below
Dnh 6

C  6.0   1.4291209561   0.0000000000   0.0000000000
C  6.0   2.8377997238   0.0000000000   0.0000000000
C  6.0   3.5284109840   1.2467632341   0.0000000000
H  1.0   4.6290945747   1.2339032398   0.0000000000
 $end

