 $CONTRL SCFTYP=RHF MPLEVL=2 RUNTYP=optimize ispher=1 $END
 $SYSTEM MWORDS=2 memddi=100 $END
 $GUESS  GUESS=HUCKEL $END
 $BASIS  GBASIS=CCD $END
 $SCF    DIRSCF=.TRUE. $END
 $INTGRL INTOMP=1 $END
 
 $mp2 code=omprimp2 $end
 $auxbas cabnam=cct $end

 $GUESS GUESS=MOREAD NORB=114 $END
 $SCF DIRSCF=.TRUE. $END
 $DATA 
Title
C1
C     6.0    -0.38617     0.26765     0.00000
C     6.0     0.82193    -0.42985     0.00000
C     6.0     0.82193    -1.82485     0.00000
C     6.0    -0.38617    -2.52235     0.00000
C     6.0    -1.59427    -1.82485     0.00000
C     6.0    -1.59427    -0.42985     0.00000
H     1.0    -0.38617     1.36735     0.00000
H     1.0     1.77433     0.12005     0.00000
H     1.0     1.77433    -2.37475     0.00000
H     1.0    -0.38617    -3.62205     0.00000
H     1.0    -2.54667    -2.37475     0.00000
H     1.0    -2.54667     0.12005     0.00000
 $END
 $VEC
 1  1 4.07853007E-01 1.40900002E-03-1.81199994E-03 0.00000000E+00 7.99999980E-05
 1  2 0.00000000E+00 0.00000000E+00-2.28000004E-04 0.00000000E+00-4.19999997E-05
 1  3 1.03999999E-04-6.09999988E-05 0.00000000E+00 0.00000000E+00 0.00000000E+00
 1  4 4.09271002E-01 1.41499995E-03-1.82899996E-03 7.00000019E-05 3.99999990E-05
 1  5 0.00000000E+00-1.93000000E-04-1.13000002E-04 0.00000000E+00 6.80000012E-05
 1  6-6.00000021E-06-6.19999992E-05 7.30000029E-05 0.00000000E+00 0.00000000E+00
 1  7 4.09271002E-01 1.41499995E-03-1.82899996E-03 7.00000019E-05-3.99999990E-05
 1  8 0.00000000E+00-1.93000000E-04 1.13000002E-04 0.00000000E+00 6.80000012E-05
 1  9-6.00000021E-06-6.19999992E-05-7.30000029E-05 0.00000000E+00 0.00000000E+00
 1 10 4.07853007E-01 1.40900002E-03-1.81199994E-03 0.00000000E+00-7.99999980E-05
 1 11 0.00000000E+00 0.00000000E+00 2.28000004E-04 0.00000000E+00-4.19999997E-05
 1 12 1.03999999E-04-6.09999988E-05 0.00000000E+00 0.00000000E+00 0.00000000E+00
 1 13 4.09271002E-01 1.41499995E-03-1.82899996E-03-7.00000019E-05-3.99999990E-05
 1 14 0.00000000E+00 1.93000000E-04 1.13000002E-04 0.00000000E+00 6.80000012E-05
 1 15-6.00000021E-06-6.19999992E-05 7.30000029E-05 0.00000000E+00 0.00000000E+00
 1 16 4.09271002E-01 1.41499995E-03-1.82899996E-03-7.00000019E-05 3.99999990E-05
 1 17 0.00000000E+00 1.93000000E-04-1.13000002E-04 0.00000000E+00 6.80000012E-05
 1 18-6.00000021E-06-6.19999992E-05-7.30000029E-05 0.00000000E+00 0.00000000E+00
 1 19-1.32000001E-04 6.73000002E-04 0.00000000E+00 1.40000004E-04 0.00000000E+00
 1 20-1.32999994E-04 6.74000010E-04 1.21999998E-04 7.00000019E-05 0.00000000E+00
 1 21-1.32999994E-04 6.74000010E-04 1.21999998E-04-7.00000019E-05 0.00000000E+00
 1 22-1.32000001E-04 6.73000002E-04 0.00000000E+00-1.40000004E-04 0.00000000E+00
 1 23-1.32999994E-04 6.74000010E-04-1.21999998E-04-7.00000019E-05 0.00000000E+00
 1 24-1.32999994E-04 6.74000010E-04-1.21999998E-04 7.00000019E-05 0.00000000E+00
 2  1-9.99999997E-07-0.00000000E+00 0.00000000E+00-4.40000003E-05-0.00000000E+00
 2  2 0.00000000E+00 1.53500005E-03-0.00000000E+00 0.00000000E+00 0.00000000E+00
 2  3-0.00000000E+00 0.00000000E+00 6.00000021E-06 0.00000000E+00 0.00000000E+00
 2  4 5.00953972E-01 2.10899999E-03-4.00099996E-03 1.70000003E-05 3.50000009E-05
 2  5 0.00000000E+00 6.77999982E-04-4.94999986E-04 0.00000000E+00 5.60000008E-05
 2  6 3.99999999E-06-5.99999985E-05 4.60000010E-05 0.00000000E+00 0.00000000E+00
 2  7 5.00953972E-01 2.10899999E-03-4.00099996E-03 1.70000003E-05-3.50000009E-05
 2  8 0.00000000E+00 6.77999982E-04 4.94999986E-04 0.00000000E+00 5.60000008E-05
 2  9 3.99999999E-06-5.99999985E-05-4.60000010E-05 0.00000000E+00 0.00000000E+00
 2 10 9.99999997E-07 0.00000000E+00-0.00000000E+00-4.40000003E-05-0.00000000E+00
 2 11 0.00000000E+00 1.53500005E-03-0.00000000E+00 0.00000000E+00-0.00000000E+00
 2 12 0.00000000E+00-0.00000000E+00-6.00000021E-06 0.00000000E+00 0.00000000E+00
 2 13-5.00953972E-01-2.10899999E-03 4.00099996E-03 1.70000003E-05 3.50000009E-05
 2 14 0.00000000E+00 6.77999982E-04-4.94999986E-04 0.00000000E+00-5.60000008E-05
 2 15-3.99999999E-06 5.99999985E-05-4.60000010E-05 0.00000000E+00 0.00000000E+00
 2 16-5.00953972E-01-2.10899999E-03 4.00099996E-03 1.70000003E-05-3.50000009E-05
 2 17 0.00000000E+00 6.77999982E-04 4.94999986E-04 0.00000000E+00-5.60000008E-05
 2 18-3.99999999E-06 5.99999985E-05 4.60000010E-05 0.00000000E+00 0.00000000E+00
 2 19 0.00000000E+00-0.00000000E+00-7.00000010E-06-0.00000000E+00 0.00000000E+00
 2 20-1.34000002E-04 5.07000019E-04 1.82000003E-04 1.09000001E-04 0.00000000E+00
 2 21-1.34000002E-04 5.07000019E-04 1.82000003E-04-1.09000001E-04 0.00000000E+00
 2 22-0.00000000E+00 0.00000000E+00-7.00000010E-06-0.00000000E+00 0.00000000E+00
 2 23 1.34000002E-04-5.07000019E-04 1.82000003E-04 1.09000001E-04 0.00000000E+00
 2 24 1.34000002E-04-5.07000019E-04 1.82000003E-04-1.09000001E-04 0.00000000E+00
 3  1-5.77786982E-01-2.43099988E-03 4.60699992E-03 0.00000000E+00-3.79999983E-05
 3  2 0.00000000E+00-0.00000000E+00-3.87000007E-04 0.00000000E+00 2.09999998E-05
 3  3-9.00000014E-05 6.90000015E-05 0.00000000E+00 0.00000000E+00 0.00000000E+00
 3  4-2.89889991E-01-1.22099998E-03 2.32299999E-03-3.50000009E-05 2.30000005E-05
 3  5 0.00000000E+00 4.91000013E-04-1.25199999E-03 0.00000000E+00-2.80000004E-05
 3  6-7.99999998E-06 3.60000013E-05-2.99999992E-05 0.00000000E+00 0.00000000E+00
 3  7 2.89889008E-01 1.22099998E-03-2.32299999E-03 3.50000009E-05 2.30000005E-05
 3  8 0.00000000E+00-4.91000013E-04-1.25199999E-03 0.00000000E+00 2.80000004E-05
 3  9 7.99999998E-06-3.60000013E-05-2.99999992E-05 0.00000000E+00 0.00000000E+00
 3 10 5.77786982E-01 2.43099988E-03-4.60699992E-03 0.00000000E+00-3.79999983E-05
 3 11 0.00000000E+00-0.00000000E+00-3.87000007E-04 0.00000000E+00-2.09999998E-05
 3 12 9.00000014E-05-6.90000015E-05 0.00000000E+00 0.00000000E+00 0.00000000E+00
 3 13 2.89889991E-01 1.22099998E-03-2.32299999E-03-3.50000009E-05 2.30000005E-05
 3 14 0.00000000E+00 4.91000013E-04-1.25199999E-03 0.00000000E+00 2.80000004E-05
 3 15 7.99999998E-06-3.60000013E-05 2.99999992E-05 0.00000000E+00 0.00000000E+00
 3 16-2.89889008E-01-1.22099998E-03 2.32299999E-03 3.50000009E-05 2.30000005E-05
 3 17 0.00000000E+00-4.91000013E-04-1.25199999E-03 0.00000000E+00-2.80000004E-05
 3 18-7.99999998E-06 3.60000013E-05 2.99999992E-05 0.00000000E+00 0.00000000E+00
 3 19 1.55000002E-04-5.85999980E-04 0.00000000E+00-2.43999995E-04 0.00000000E+00
 3 20 7.79999973E-05-2.92000012E-04-1.10000001E-04-5.60000008E-05 0.00000000E+00
 3 21-7.79999973E-05 2.92000012E-04 1.10000001E-04-5.60000008E-05 0.00000000E+00
 3 22-1.55000002E-04 5.85999980E-04 0.00000000E+00-2.43999995E-04 0.00000000E+00
 3 23-7.79999973E-05 2.92000012E-04-1.10000001E-04-5.60000008E-05 0.00000000E+00
 3 24 7.79999973E-05-2.92000012E-04 1.10000001E-04-5.60000008E-05 0.00000000E+00
 4  1-3.99999999E-06-0.00000000E+00 0.00000000E+00 6.39999998E-05-0.00000000E+00
 4  2 0.00000000E+00-7.16999988E-04-0.00000000E+00 0.00000000E+00-0.00000000E+00
 4  3-0.00000000E+00 0.00000000E+00-1.32999994E-04 0.00000000E+00 0.00000000E+00
 4  4-5.01206994E-01-2.32700002E-03 5.70499990E-03-3.50000009E-05 1.70000003E-05
 4  5 0.00000000E+00-1.00100006E-03-9.91999987E-04 0.00000000E+00-1.80000003E-04
 4  6-2.51999998E-04 4.32000001E-04-6.09999988E-05 0.00000000E+00 0.00000000E+00
 4  7 5.01210988E-01 2.32700002E-03-5.70499990E-03 3.50000009E-05 1.70000003E-05
 4  8 0.00000000E+00 1.00100006E-03-9.91999987E-04 0.00000000E+00 1.80000003E-04
 4  9 2.51999998E-04-4.32000001E-04-6.09999988E-05 0.00000000E+00 0.00000000E+00
 4 10-3.99999999E-06-0.00000000E+00 0.00000000E+00-6.39999998E-05 0.00000000E+00
 4 11 0.00000000E+00 7.16999988E-04 0.00000000E+00 0.00000000E+00-0.00000000E+00
 4 12-0.00000000E+00 0.00000000E+00-1.32999994E-04 0.00000000E+00 0.00000000E+00
 4 13-5.01206994E-01-2.32700002E-03 5.70499990E-03 3.50000009E-05-1.70000003E-05
 4 14 0.00000000E+00 1.00100006E-03 9.91999987E-04 0.00000000E+00-1.80000003E-04
 4 15-2.51999998E-04 4.32000001E-04-6.09999988E-05 0.00000000E+00 0.00000000E+00
 4 16 5.01210988E-01 2.32700002E-03-5.70499990E-03-3.50000009E-05-1.70000003E-05
 4 17 0.00000000E+00-1.00100006E-03 9.91999987E-04 0.00000000E+00 1.80000003E-04
 4 18 2.51999998E-04-4.32000001E-04-6.09999988E-05 0.00000000E+00 0.00000000E+00
 4 19 0.00000000E+00-0.00000000E+00 9.99999975E-06-0.00000000E+00 0.00000000E+00
 4 20 2.88000010E-04-1.95999994E-04-2.96999991E-04-1.65999998E-04 0.00000000E+00
 4 21-2.88000010E-04 1.95999994E-04 2.96999991E-04-1.65999998E-04 0.00000000E+00
 4 22 0.00000000E+00-0.00000000E+00-9.99999975E-06 0.00000000E+00 0.00000000E+00
 4 23 2.88000010E-04-1.95999994E-04 2.96999991E-04 1.65999998E-04 0.00000000E+00
 4 24-2.88000010E-04 1.95999994E-04-2.96999991E-04 1.65999998E-04 0.00000000E+00
 5  1 5.79412997E-01 2.68999999E-03-6.58999989E-03 0.00000000E+00 2.49999994E-05
 5  2 0.00000000E+00-0.00000000E+00 1.57299999E-03 0.00000000E+00 2.16999993E-04
 5  3 2.81999994E-04-4.99000016E-04-0.00000000E+00 0.00000000E+00 0.00000000E+00
 5  4-2.88708001E-01-1.34099997E-03 3.29099991E-03 1.70000003E-05-5.40000001E-05
 5  5 0.00000000E+00-9.91999987E-04 1.44000005E-04 0.00000000E+00-2.18999994E-04
 5  6-2.99999992E-05 2.50000012E-04 4.19999997E-05 0.00000000E+00 0.00000000E+00
 5  7-2.88700998E-01-1.34099997E-03 3.29099991E-03 1.70000003E-05 5.40000001E-05
 5  8 0.00000000E+00-9.91999987E-04-1.44000005E-04 0.00000000E+00-2.18999994E-04
 5  9-2.99999992E-05 2.50000012E-04-4.19999997E-05 0.00000000E+00 0.00000000E+00
 5 10 5.79412997E-01 2.68999999E-03-6.58999989E-03-0.00000000E+00-2.49999994E-05
 5 11 0.00000000E+00 0.00000000E+00-1.57299999E-03 0.00000000E+00 2.16999993E-04
 5 12 2.81999994E-04-4.99000016E-04-0.00000000E+00 0.00000000E+00 0.00000000E+00
 5 13-2.88708001E-01-1.34099997E-03 3.29099991E-03-1.70000003E-05 5.40000001E-05
 5 14 0.00000000E+00 9.91999987E-04-1.44000005E-04 0.00000000E+00-2.18999994E-04
 5 15-2.99999992E-05 2.50000012E-04 4.19999997E-05 0.00000000E+00 0.00000000E+00
 5 16-2.88700998E-01-1.34099997E-03 3.29099991E-03-1.70000003E-05-5.40000001E-05
 5 17 0.00000000E+00 9.91999987E-04 1.44000005E-04 0.00000000E+00-2.18999994E-04
 5 18-2.99999992E-05 2.50000012E-04-4.19999997E-05 0.00000000E+00 0.00000000E+00
 5 19-3.33000004E-04 2.28000004E-04 0.00000000E+00 3.92999995E-04 0.00000000E+00
 5 20 1.65999998E-04-1.12000002E-04-1.65999998E-04-1.06000000E-04 0.00000000E+00
 5 21 1.65999998E-04-1.12000002E-04-1.65999998E-04 1.06000000E-04 0.00000000E+00
 5 22-3.33000004E-04 2.28000004E-04-0.00000000E+00-3.92999995E-04 0.00000000E+00
 5 23 1.65999998E-04-1.12000002E-04 1.65999998E-04 1.06000000E-04 0.00000000E+00
 5 24 1.65999998E-04-1.12000002E-04 1.65999998E-04-1.06000000E-04 0.00000000E+00
 6  1-4.10342991E-01-2.12500012E-03 7.90700037E-03 0.00000000E+00 7.99999998E-06
 6  2 0.00000000E+00 0.00000000E+00-2.80799996E-03 0.00000000E+00-2.07000005E-04
 6  3-3.38999991E-04 5.46000025E-04 0.00000000E+00 0.00000000E+00 0.00000000E+00
 6  4 4.08937007E-01 2.11900007E-03-7.89599959E-03-7.00000010E-06-3.99999999E-06
 6  5 0.00000000E+00 2.43199989E-03 1.40199997E-03 0.00000000E+00 3.06000002E-04
 6  6 2.39999994E-04-5.46000025E-04 6.60000005E-05 0.00000000E+00 0.00000000E+00
 6  7-4.08937007E-01-2.11900007E-03 7.89599959E-03 7.00000010E-06-3.99999999E-06
 6  8 0.00000000E+00-2.43199989E-03 1.40199997E-03 0.00000000E+00-3.06000002E-04
 6  9-2.39999994E-04 5.46000025E-04 6.60000005E-05 0.00000000E+00 0.00000000E+00
 6 10 4.10342991E-01 2.12500012E-03-7.90700037E-03 0.00000000E+00 7.99999998E-06
 6 11 0.00000000E+00 0.00000000E+00-2.80799996E-03 0.00000000E+00 2.07000005E-04
 6 12 3.38999991E-04-5.46000025E-04 0.00000000E+00 0.00000000E+00 0.00000000E+00
 6 13-4.08937007E-01-2.11900007E-03 7.89599959E-03-7.00000010E-06-3.99999999E-06
 6 14 0.00000000E+00 2.43199989E-03 1.40199997E-03 0.00000000E+00-3.06000002E-04
 6 15-2.39999994E-04 5.46000025E-04-6.60000005E-05 0.00000000E+00 0.00000000E+00
 6 16 4.08937007E-01 2.11900007E-03-7.89599959E-03 7.00000010E-06-3.99999999E-06
 6 17 0.00000000E+00-2.43199989E-03 1.40199997E-03 0.00000000E+00 3.06000002E-04
 6 18 2.39999994E-04-5.46000025E-04-6.60000005E-05 0.00000000E+00 0.00000000E+00
 6 19 3.52000003E-04 2.07999998E-04 0.00000000E+00-3.26000008E-04 0.00000000E+00
 6 20-3.50999995E-04-2.09000005E-04 2.81999994E-04 1.63000004E-04 0.00000000E+00
 6 21 3.50999995E-04 2.09000005E-04-2.81999994E-04 1.63000004E-04 0.00000000E+00
 6 22-3.52000003E-04-2.07999998E-04 0.00000000E+00-3.26000008E-04 0.00000000E+00
 6 23 3.50999995E-04 2.09000005E-04 2.81999994E-04 1.63000004E-04 0.00000000E+00
 6 24-3.50999995E-04-2.09000005E-04-2.81999994E-04 1.63000004E-04 0.00000000E+00
 7  1-1.15580000E-02 1.80150002E-01 1.00037001E-01-0.00000000E+00-6.57059997E-02
 7  2 0.00000000E+00 0.00000000E+00-1.20369997E-02 0.00000000E+00 9.39000025E-03
 7  3-3.15000012E-04-9.07499995E-03 0.00000000E+00 0.00000000E+00 0.00000000E+00
 7  4-1.15569998E-02 1.80148005E-01 1.00037001E-01-5.69059998E-02-3.28520015E-02
 7  5 0.00000000E+00-1.04230000E-02-6.01699995E-03 0.00000000E+00 2.11200002E-03
 7  6 6.96399994E-03-9.07499995E-03-4.85299993E-03 0.00000000E+00 0.00000000E+00
 7  7-1.15569998E-02 1.80148005E-01 1.00037001E-01-5.69059998E-02 3.28520015E-02
 7  8 0.00000000E+00-1.04230000E-02 6.01699995E-03 0.00000000E+00 2.11200002E-03
 7  9 6.96399994E-03-9.07499995E-03 4.85299993E-03 0.00000000E+00 0.00000000E+00
 7 10-1.15580000E-02 1.80150002E-01 1.00037001E-01 0.00000000E+00 6.57059997E-02
 7 11 0.00000000E+00 0.00000000E+00 1.20369997E-02 0.00000000E+00 9.39000025E-03
 7 12-3.15000012E-04-9.07499995E-03 0.00000000E+00 0.00000000E+00 0.00000000E+00
 7 13-1.15569998E-02 1.80148005E-01 1.00037001E-01 5.69059998E-02 3.28520015E-02
 7 14 0.00000000E+00 1.04230000E-02 6.01699995E-03 0.00000000E+00 2.11200002E-03
 7 15 6.96399994E-03-9.07499995E-03-4.85299993E-03 0.00000000E+00 0.00000000E+00
 7 16-1.15569998E-02 1.80148005E-01 1.00037001E-01 5.69059998E-02-3.28520015E-02
 7 17 0.00000000E+00 1.04230000E-02-6.01699995E-03 0.00000000E+00 2.11200002E-03
 7 18 6.96399994E-03-9.07499995E-03 4.85299993E-03 0.00000000E+00 0.00000000E+00
 7 19 4.56129983E-02 6.53999974E-04 0.00000000E+00-8.21099989E-03 0.00000000E+00
 7 20 4.56059985E-02 6.53000025E-04-7.11099990E-03-4.10600007E-03 0.00000000E+00
 7 21 4.56059985E-02 6.53000025E-04-7.11099990E-03 4.10600007E-03 0.00000000E+00
 7 22 4.56129983E-02 6.53999974E-04 0.00000000E+00 8.21099989E-03 0.00000000E+00
 7 23 4.56059985E-02 6.53000025E-04 7.11099990E-03 4.10600007E-03 0.00000000E+00
 7 24 4.56059985E-02 6.53000025E-04 7.11099990E-03-4.10600007E-03 0.00000000E+00
 8  1 1.74020007E-02-2.48285994E-01-1.51287004E-01 0.00000000E+00 3.36740017E-02
 8  2 0.00000000E+00 0.00000000E+00 2.10909992E-02 0.00000000E+00-1.36329997E-02
 8  3 3.62000009E-03 1.00130001E-02-0.00000000E+00 0.00000000E+00 0.00000000E+00
 8  4 8.70000012E-03-1.24141999E-01-7.56440014E-02 6.53169975E-02-7.94529989E-02
 8  5 0.00000000E+00 2.73570009E-02-2.62960009E-02 0.00000000E+00-1.27290003E-02
 8  6 7.72299990E-03 5.00700017E-03 1.25690000E-02 0.00000000E+00 0.00000000E+00
 8  7-8.70000012E-03 1.24141999E-01 7.56440014E-02-6.53169975E-02-7.94529989E-02
 8  8 0.00000000E+00-2.73570009E-02-2.62960009E-02 0.00000000E+00 1.27290003E-02
 8  9-7.72299990E-03-5.00700017E-03 1.25690000E-02 0.00000000E+00 0.00000000E+00
 8 10-1.74020007E-02 2.48285994E-01 1.51287004E-01 0.00000000E+00 3.36740017E-02
 8 11 0.00000000E+00 0.00000000E+00 2.10909992E-02 0.00000000E+00 1.36329997E-02
 8 12-3.62000009E-03-1.00130001E-02 0.00000000E+00 0.00000000E+00 0.00000000E+00
 8 13-8.70000012E-03 1.24141999E-01 7.56440014E-02 6.53169975E-02-7.94529989E-02
 8 14 0.00000000E+00 2.73570009E-02-2.62960009E-02 0.00000000E+00 1.27290003E-02
 8 15-7.72299990E-03-5.00700017E-03-1.25690000E-02 0.00000000E+00 0.00000000E+00
 8 16 8.70000012E-03-1.24141999E-01-7.56440014E-02-6.53169975E-02-7.94529989E-02
 8 17 0.00000000E+00-2.73570009E-02-2.62960009E-02 0.00000000E+00-1.27290003E-02
 8 18 7.72299990E-03 5.00700017E-03-1.25690000E-02 0.00000000E+00 0.00000000E+00
 8 19-1.02457002E-01-1.25019997E-02 0.00000000E+00 1.52470004E-02 0.00000000E+00
 8 20-5.12229986E-02-6.25000009E-03 7.88099971E-03 1.59700005E-03 0.00000000E+00
 8 21 5.12229986E-02 6.25000009E-03-7.88099971E-03 1.59700005E-03 0.00000000E+00
 8 22 1.02457002E-01 1.25019997E-02 0.00000000E+00 1.52470004E-02 0.00000000E+00
 8 23 5.12229986E-02 6.25000009E-03 7.88099971E-03 1.59700005E-03 0.00000000E+00
 8 24-5.12229986E-02-6.25000009E-03-7.88099971E-03 1.59700005E-03 0.00000000E+00
 9  1-0.00000000E+00 0.00000000E+00 0.00000000E+00 1.17165998E-01-0.00000000E+00
 9  2 0.00000000E+00 4.20890003E-02-0.00000000E+00 0.00000000E+00 0.00000000E+00
 9  3-0.00000000E+00-0.00000000E+00-1.90650001E-02 0.00000000E+00 0.00000000E+00
 9  4-1.50690004E-02 2.15022996E-01 1.31025001E-01 4.03100019E-03-6.53159991E-02
 9  5 0.00000000E+00-5.29399980E-03-2.73560006E-02 0.00000000E+00-6.54899981E-03
 9  6 1.52209997E-02-8.67099967E-03-2.70500011E-03 0.00000000E+00 0.00000000E+00
 9  7-1.50690004E-02 2.15022996E-01 1.31025001E-01 4.03100019E-03 6.53159991E-02
 9  8 0.00000000E+00-5.29399980E-03 2.73560006E-02 0.00000000E+00-6.54899981E-03
 9  9 1.52209997E-02-8.67099967E-03 2.70500011E-03 0.00000000E+00 0.00000000E+00
 9 10 0.00000000E+00-0.00000000E+00-0.00000000E+00 1.17165998E-01-0.00000000E+00
 9 11 0.00000000E+00 4.20890003E-02-0.00000000E+00 0.00000000E+00-0.00000000E+00
 9 12 0.00000000E+00 0.00000000E+00 1.90650001E-02 0.00000000E+00 0.00000000E+00
 9 13 1.50690004E-02-2.15022996E-01-1.31025001E-01 4.03100019E-03-6.53159991E-02
 9 14 0.00000000E+00-5.29399980E-03-2.73560006E-02 0.00000000E+00 6.54899981E-03
 9 15-1.52209997E-02 8.67099967E-03 2.70500011E-03 0.00000000E+00 0.00000000E+00
 9 16 1.50690004E-02-2.15022996E-01-1.31025001E-01 4.03100019E-03 6.53159991E-02
 9 17 0.00000000E+00-5.29399980E-03 2.73560006E-02 0.00000000E+00 6.54899981E-03
 9 18-1.52209997E-02 8.67099967E-03-2.70500011E-03 0.00000000E+00 0.00000000E+00
 9 19 0.00000000E+00 0.00000000E+00 2.95399991E-03-0.00000000E+00 0.00000000E+00
 9 20 8.87200013E-02 1.08249998E-02-1.06960004E-02-7.88099971E-03 0.00000000E+00
 9 21 8.87200013E-02 1.08249998E-02-1.06960004E-02 7.88099971E-03 0.00000000E+00
 9 22-0.00000000E+00-0.00000000E+00 2.95399991E-03-0.00000000E+00 0.00000000E+00
 9 23-8.87200013E-02-1.08249998E-02-1.06960004E-02-7.88099971E-03 0.00000000E+00
 9 24-8.87200013E-02-1.08249998E-02-1.06960004E-02 7.88099971E-03 0.00000000E+00
10  1-9.98600014E-03 2.00544998E-01 1.66435003E-01 0.00000000E+00 5.71440011E-02
10  2 0.00000000E+00 0.00000000E+00-4.12200019E-03 0.00000000E+00 4.53800010E-03
10  3-5.31000027E-04-4.00700001E-03-0.00000000E+00 0.00000000E+00 0.00000000E+00
10  4 4.99199983E-03-1.00275002E-01-8.32199976E-02-1.15080997E-01 1.42224997E-01
10  5 0.00000000E+00-2.45709997E-02 4.66899984E-02 0.00000000E+00 9.69699956E-03
10  6-1.16999997E-02 2.00399989E-03-5.44299977E-03 0.00000000E+00 0.00000000E+00
10  7 4.99199983E-03-1.00275002E-01-8.32199976E-02-1.15080997E-01-1.42224997E-01
10  8 0.00000000E+00-2.45709997E-02-4.66899984E-02 0.00000000E+00 9.69699956E-03
10  9-1.16999997E-02 2.00399989E-03 5.44299977E-03 0.00000000E+00 0.00000000E+00
10 10-9.98600014E-03 2.00544998E-01 1.66435003E-01-0.00000000E+00-5.71440011E-02
10 11 0.00000000E+00-0.00000000E+00 4.12200019E-03 0.00000000E+00 4.53800010E-03
10 12-5.31000027E-04-4.00700001E-03-0.00000000E+00 0.00000000E+00 0.00000000E+00
10 13 4.99199983E-03-1.00275002E-01-8.32199976E-02 1.15080997E-01-1.42224997E-01
10 14 0.00000000E+00 2.45709997E-02-4.66899984E-02 0.00000000E+00 9.69699956E-03
10 15-1.16999997E-02 2.00399989E-03-5.44299977E-03 0.00000000E+00 0.00000000E+00
10 16 4.99199983E-03-1.00275002E-01-8.32199976E-02 1.15080997E-01 1.42224997E-01
10 17 0.00000000E+00 2.45709997E-02 4.66899984E-02 0.00000000E+00 9.69699956E-03
10 18-1.16999997E-02 2.00399989E-03 5.44299977E-03 0.00000000E+00 0.00000000E+00
10 19 1.52081996E-01 3.22710015E-02 0.00000000E+00-1.75509993E-02 0.00000000E+00
10 20-7.60210007E-02-1.61329992E-02 5.96300000E-03 7.21899979E-03 0.00000000E+00
10 21-7.60219991E-02-1.61329992E-02 5.96300000E-03-7.21899979E-03 0.00000000E+00
10 22 1.52081996E-01 3.22710015E-02-0.00000000E+00 1.75509993E-02 0.00000000E+00
10 23-7.60210007E-02-1.61329992E-02-5.96300000E-03-7.21899979E-03 0.00000000E+00
10 24-7.60219991E-02-1.61329992E-02-5.96300000E-03 7.21899979E-03 0.00000000E+00
11  1-0.00000000E+00 0.00000000E+00 0.00000000E+00-2.08671004E-01 0.00000000E+00
11  2 0.00000000E+00-6.08789995E-02-0.00000000E+00 0.00000000E+00 0.00000000E+00
11  3-0.00000000E+00-0.00000000E+00 1.54959997E-02 0.00000000E+00 0.00000000E+00
11  4 8.64700042E-03-1.73678994E-01-1.44143000E-01 9.32500046E-03-1.15093000E-01
11  5 0.00000000E+00 1.83080006E-02-2.45730001E-02 0.00000000E+00-6.44899998E-03
11  6 2.97800009E-03 3.47000011E-03 6.06899988E-03 0.00000000E+00 0.00000000E+00
11  7-8.64700042E-03 1.73678994E-01 1.44143000E-01-9.32500046E-03-1.15093999E-01
11  8 0.00000000E+00-1.83080006E-02-2.45730001E-02 0.00000000E+00 6.44899998E-03
11  9-2.97800009E-03-3.47000011E-03 6.06899988E-03 0.00000000E+00 0.00000000E+00
11 10-0.00000000E+00 0.00000000E+00 0.00000000E+00 2.08671004E-01-0.00000000E+00
11 11 0.00000000E+00 6.08789995E-02 0.00000000E+00 0.00000000E+00 0.00000000E+00
11 12-0.00000000E+00-0.00000000E+00 1.54959997E-02 0.00000000E+00 0.00000000E+00
11 13 8.64700042E-03-1.73678994E-01-1.44143000E-01-9.32500046E-03 1.15093000E-01
11 14 0.00000000E+00-1.83080006E-02 2.45730001E-02 0.00000000E+00-6.44899998E-03
11 15 2.97800009E-03 3.47000011E-03 6.06899988E-03 0.00000000E+00 0.00000000E+00
11 16-8.64700042E-03 1.73678994E-01 1.44143000E-01 9.32500046E-03 1.15093999E-01
11 17 0.00000000E+00 1.83080006E-02 2.45730001E-02 0.00000000E+00 6.44899998E-03
11 18-2.97800009E-03-3.47000011E-03 6.06899988E-03 0.00000000E+00 0.00000000E+00
11 19 0.00000000E+00 0.00000000E+00-3.77600011E-03-0.00000000E+00 0.00000000E+00
11 20-1.31688997E-01-2.79430002E-02 1.41059998E-02 5.96399978E-03 0.00000000E+00
11 21 1.31688997E-01 2.79430002E-02-1.41059998E-02 5.96399978E-03 0.00000000E+00
11 22 0.00000000E+00 0.00000000E+00 3.77600011E-03 0.00000000E+00 0.00000000E+00
11 23-1.31688997E-01-2.79430002E-02-1.41059998E-02-5.96399978E-03 0.00000000E+00
11 24 1.31688997E-01 2.79430002E-02 1.41059998E-02-5.96399978E-03 0.00000000E+00
12  1 3.54399998E-03-1.19439997E-02-3.11740004E-02 0.00000000E+00-1.88795999E-01
12  2 0.00000000E+00-0.00000000E+00-6.41070008E-02 0.00000000E+00-3.62499990E-03
12  3 5.03400015E-03-1.40900002E-03 0.00000000E+00 0.00000000E+00 0.00000000E+00
12  4 3.54399998E-03-1.19669996E-02-3.11970003E-02-1.63507998E-01-9.43799987E-02
12  5 0.00000000E+00-5.55270016E-02-3.20519991E-02 0.00000000E+00 2.87099998E-03
12  6-1.46199996E-03-1.40900002E-03 4.32999991E-03 0.00000000E+00 0.00000000E+00
12  7 3.54399998E-03-1.19669996E-02-3.11970003E-02-1.63507998E-01 9.43799987E-02
12  8 0.00000000E+00-5.55270016E-02 3.20519991E-02 0.00000000E+00 2.87099998E-03
12  9-1.46199996E-03-1.40900002E-03-4.32999991E-03 0.00000000E+00 0.00000000E+00
12 10 3.54399998E-03-1.19439997E-02-3.11740004E-02 0.00000000E+00 1.88795999E-01
12 11 0.00000000E+00 0.00000000E+00 6.41070008E-02 0.00000000E+00-3.62499990E-03
12 12 5.03400015E-03-1.40900002E-03 0.00000000E+00 0.00000000E+00 0.00000000E+00
12 13 3.54399998E-03-1.19669996E-02-3.11970003E-02 1.63507998E-01 9.43799987E-02
12 14 0.00000000E+00 5.55270016E-02 3.20519991E-02 0.00000000E+00 2.87099998E-03
12 15-1.46199996E-03-1.40900002E-03 4.32999991E-03 0.00000000E+00 0.00000000E+00
12 16 3.54399998E-03-1.19669996E-02-3.11970003E-02 1.63507998E-01-9.43799987E-02
12 17 0.00000000E+00 5.55270016E-02-3.20519991E-02 0.00000000E+00 2.87099998E-03
12 18-1.46199996E-03-1.40900002E-03-4.32999991E-03 0.00000000E+00 0.00000000E+00
12 19-1.49044007E-01-3.74550000E-02 0.00000000E+00 1.30420001E-02 0.00000000E+00
12 20-1.49049997E-01-3.74550000E-02 1.12950001E-02 6.52199984E-03 0.00000000E+00
12 21-1.49049997E-01-3.74550000E-02 1.12950001E-02-6.52199984E-03 0.00000000E+00
12 22-1.49044007E-01-3.74550000E-02 0.00000000E+00-1.30420001E-02 0.00000000E+00
12 23-1.49049997E-01-3.74550000E-02-1.12950001E-02-6.52199984E-03 0.00000000E+00
12 24-1.49049997E-01-3.74550000E-02-1.12950001E-02 6.52199984E-03 0.00000000E+00
13  1 6.34999992E-03-1.11321002E-01-1.56661004E-01-0.00000000E+00-1.27058998E-01
13  2 0.00000000E+00-0.00000000E+00-1.56060001E-02 0.00000000E+00 2.12420002E-02
13  3-2.03799997E-02-8.61999986E-04 0.00000000E+00 0.00000000E+00 0.00000000E+00
13  4-6.34999992E-03 1.11334004E-01 1.56693995E-01 1.09967001E-01 6.35059997E-02
13  5 0.00000000E+00 1.35009997E-02 7.78800016E-03 0.00000000E+00 9.97500028E-03
13  6-1.08369999E-02 8.60999979E-04 2.08069999E-02 0.00000000E+00 0.00000000E+00
13  7 6.34999992E-03-1.11334004E-01-1.56693995E-01-1.09967001E-01 6.35059997E-02
13  8 0.00000000E+00-1.35009997E-02 7.78800016E-03 0.00000000E+00-9.97500028E-03
13  9 1.08369999E-02-8.60999979E-04 2.08069999E-02 0.00000000E+00 0.00000000E+00
13 10-6.34999992E-03 1.11321002E-01 1.56661004E-01-0.00000000E+00-1.27058998E-01
13 11 0.00000000E+00-0.00000000E+00-1.56060001E-02 0.00000000E+00-2.12420002E-02
13 12 2.03799997E-02 8.61999986E-04 0.00000000E+00 0.00000000E+00 0.00000000E+00
13 13 6.34999992E-03-1.11334004E-01-1.56693995E-01 1.09967001E-01 6.35059997E-02
13 14 0.00000000E+00 1.35009997E-02 7.78800016E-03 0.00000000E+00-9.97500028E-03
13 15 1.08369999E-02-8.60999979E-04-2.08069999E-02 0.00000000E+00 0.00000000E+00
13 16-6.34999992E-03 1.11334004E-01 1.56693995E-01-1.09967001E-01 6.35059997E-02
13 17 0.00000000E+00-1.35009997E-02 7.78800016E-03 0.00000000E+00 9.97500028E-03
13 18-1.08369999E-02 8.60999979E-04-2.08069999E-02 0.00000000E+00 0.00000000E+00
13 19-1.83320999E-01-7.17770010E-02-0.00000000E+00 1.31219998E-02 0.00000000E+00
13 20 1.83264002E-01 7.17580020E-02-1.13610001E-02-6.55800011E-03 0.00000000E+00
13 21-1.83264002E-01-7.17580020E-02 1.13610001E-02-6.55800011E-03 0.00000000E+00
13 22 1.83320999E-01 7.17770010E-02-0.00000000E+00 1.31219998E-02 0.00000000E+00
13 23-1.83264002E-01-7.17580020E-02-1.13610001E-02-6.55800011E-03 0.00000000E+00
13 24 1.83264002E-01 7.17580020E-02 1.13610001E-02-6.55800011E-03 0.00000000E+00
14  1 0.00000000E+00-0.00000000E+00-0.00000000E+00 2.76740998E-01-0.00000000E+00
14  2 0.00000000E+00 9.63110030E-02 0.00000000E+00 0.00000000E+00 0.00000000E+00
14  3-0.00000000E+00 0.00000000E+00-1.02800000E-02 0.00000000E+00 0.00000000E+00
14  4-0.00000000E+00-6.00000021E-06-7.99999998E-06-1.38355002E-01 2.39692003E-01
14  5 0.00000000E+00-4.81459983E-02 8.34129974E-02 0.00000000E+00 7.71299982E-03
14  6-7.71299982E-03 0.00000000E+00-5.14099980E-03 0.00000000E+00 0.00000000E+00
14  7-0.00000000E+00-6.00000021E-06-7.99999998E-06-1.38355002E-01-2.39692003E-01
14  8 0.00000000E+00-4.81459983E-02-8.34129974E-02 0.00000000E+00 7.71299982E-03
14  9-7.71299982E-03 0.00000000E+00 5.14099980E-03 0.00000000E+00 0.00000000E+00
14 10 0.00000000E+00 0.00000000E+00 0.00000000E+00 2.76740998E-01-0.00000000E+00
14 11 0.00000000E+00 9.63110030E-02 0.00000000E+00 0.00000000E+00-0.00000000E+00
14 12 0.00000000E+00 0.00000000E+00 1.02800000E-02 0.00000000E+00 0.00000000E+00
14 13 0.00000000E+00 6.00000021E-06 7.99999998E-06-1.38355002E-01 2.39692003E-01
14 14 0.00000000E+00-4.81459983E-02 8.34129974E-02 0.00000000E+00-7.71299982E-03
14 15 7.71299982E-03-0.00000000E+00 5.14099980E-03 0.00000000E+00 0.00000000E+00
14 16 0.00000000E+00 6.00000021E-06 7.99999998E-06-1.38355002E-01-2.39692003E-01
14 17 0.00000000E+00-4.81459983E-02-8.34129974E-02 0.00000000E+00-7.71299982E-03
14 18 7.71299982E-03-0.00000000E+00-5.14099980E-03 0.00000000E+00 0.00000000E+00
14 19-0.00000000E+00-0.00000000E+00 5.23599982E-03 0.00000000E+00 0.00000000E+00
14 20 2.20000002E-05 7.00000010E-06-2.61999993E-03 4.53400007E-03 0.00000000E+00
14 21 2.20000002E-05 7.00000010E-06-2.61999993E-03-4.53400007E-03 0.00000000E+00
14 22 0.00000000E+00 0.00000000E+00 5.23599982E-03 0.00000000E+00 0.00000000E+00
14 23-2.20000002E-05-7.00000010E-06-2.61999993E-03 4.53400007E-03 0.00000000E+00
14 24-2.20000002E-05-7.00000010E-06-2.61999993E-03-4.53400007E-03 0.00000000E+00
15  1-3.76999989E-04-4.31360006E-02-5.77559993E-02-0.00000000E+00 2.89023012E-01
15  2 0.00000000E+00-0.00000000E+00 1.17634997E-01 0.00000000E+00-7.50700012E-03
15  3 6.48299977E-03 1.02299999E-03 0.00000000E+00 0.00000000E+00 0.00000000E+00
15  4-1.90000006E-04-2.15429999E-02-2.88379993E-02 1.62585005E-01 7.47499987E-03
15  5 0.00000000E+00 5.14880009E-02 2.84770001E-02 0.00000000E+00-1.17509998E-02
15  6 1.12399999E-02 5.10999991E-04 1.23330001E-02 0.00000000E+00 0.00000000E+00
15  7 1.90000006E-04 2.15429999E-02 2.88379993E-02-1.62585005E-01 7.47499987E-03
15  8 0.00000000E+00-5.14880009E-02 2.84770001E-02 0.00000000E+00 1.17509998E-02
15  9-1.12399999E-02-5.10999991E-04 1.23330001E-02 0.00000000E+00 0.00000000E+00
15 10 3.76999989E-04 4.31360006E-02 5.77559993E-02-0.00000000E+00 2.89023012E-01
15 11 0.00000000E+00-0.00000000E+00 1.17634997E-01 0.00000000E+00 7.50700012E-03
15 12-6.48299977E-03-1.02299999E-03-0.00000000E+00 0.00000000E+00 0.00000000E+00
15 13 1.90000006E-04 2.15429999E-02 2.88379993E-02 1.62585005E-01 7.47499987E-03
15 14 0.00000000E+00 5.14880009E-02 2.84770001E-02 0.00000000E+00 1.17509998E-02
15 15-1.12399999E-02-5.10999991E-04-1.23330001E-02 0.00000000E+00 0.00000000E+00
15 16-1.90000006E-04-2.15429999E-02-2.88379993E-02-1.62585005E-01 7.47499987E-03
15 17 0.00000000E+00-5.14880009E-02 2.84770001E-02 0.00000000E+00-1.17509998E-02
15 18 1.12399999E-02 5.10999991E-04-1.23330001E-02 0.00000000E+00 0.00000000E+00
15 19 2.22942993E-01 8.15029964E-02-0.00000000E+00-1.47329997E-02 0.00000000E+00
15 20 1.11513004E-01 4.07689996E-02-4.32799989E-03-7.24200020E-03 0.00000000E+00
15 21-1.11511998E-01-4.07689996E-02 4.32799989E-03-7.24200020E-03 0.00000000E+00
15 22-2.22942993E-01-8.15029964E-02-0.00000000E+00-1.47329997E-02 0.00000000E+00
15 23-1.11513004E-01-4.07689996E-02-4.32799989E-03-7.24200020E-03 0.00000000E+00