! Br2 energy  RI-MP2 energy + gradient with auxiliary basis Def2-TZVP
! Uses auxdef21 external auxiliary file in auxdata folder
!UNITS ARE HARTREE/BOHR    E'X               E'Y               E'Z
!    1 BR               0.000000000       0.000000000       0.076754357
!    2 BR               0.000000000       0.000000000      -0.076754357
!
!                   MAXIMUM GRADIENT =    0.076754357
!                       RMS GRADIENT =    0.044314149
!  $VIB
!          IVIB=   0 IATOM=   0 ICOORD=   0 E=      -33.7641357753
!  0.000000000E+00 0.000000000E+00 7.675435672E-02 0.000000000E+00 0.000000000E+00
! -7.675435672E-02
!  0.000000000E+00 0.000000000E+00-1.806033367E-14

 $CONTRL SCFTYP=RHF MPLEVL=2 RUNTYP=gradient ispher=1 pp=read $END
 $SYSTEM MWORDS=2 memddi=100 $END
 $BASIS  basnam(1)=bromine,bromine  $END
 $SCF    DIRSCF=.TRUE. $END
 $INTGRL INTOMP=1 $END
 $mp2 code=omprimp2 $end
 $auxbas cabnam=auxdef21 extcab=.true. $end
 $GUESS GUESS=HUCKEL $END
 $SCF DIRSCF=.TRUE. $END
 $DATA 
Title
Dnh 2

Br     35.0     0.00000000     0.00000000  -1.148204
 $END
!----------------------------------------------------------------------
! Basis Set Exchange
! Version v0.8.13
! https://www.basissetexchange.org
!----------------------------------------------------------------------
!   Basis set: def2-TZVP
! Description: def2-TZVP
!        Role: orbital
!     Version: 1  (Data from Turbomole 7.3)
!----------------------------------------------------------------------

 $BROMINE
S   8
1    565073.2525600              0.23660314690E-03
2     84701.7231790              0.18348332508E-02
3     19276.2719000              0.95465849860E-02
4      5456.4284576              0.38877142153E-01
5      1776.9503500              0.12718314231
6       639.19398276             0.30437662191
7       248.78823961             0.44490940497
8        98.678305494            0.24381643058
S   4
1       606.07824568            -0.26527158709E-01
2       188.45598484            -0.12484584809
3        31.497144506            0.56468683559
4        13.736008320            0.55555268564
S   2
1        21.203212766           -0.24940920493
2         3.7616420178           0.71213119743
S   1
1         1.7735933962           1.0000000
S   1
1         0.45197413664          1.0000000
S   1
1         0.16613377099          1.0000000
P   6
1      3019.6955723              0.24971049798E-02
2       715.35481126             0.20419267596E-01
3       229.98328751             0.96897148309E-01
4        86.167844615            0.28053901252
5        34.667870802            0.44606390473
6        14.113870307            0.24410073923
P   4
1        57.085653082           -0.21855950710E-01
2         8.8193845840           0.32707075320
3         3.9340302872           0.57855229520
4         1.7998830384           0.33570987698
P   1
1         0.66899410512          1.0000000
P   1
1         0.27136238231          1.0000000
P   1
1         0.10083790243          1.0000000
D   5
1       168.85370257             0.89663981988E-02
2        49.977949919            0.62062059316E-01
3        18.274913338            0.21474732384
4         7.2455694631           0.40335336746
5         2.8562315025           0.42208813080
D   1
1         1.0459621144            .17874813267
D   1
1         0.56865655             1.0000000
D   1
1         0.22031490             1.0000000
F   1
1         0.57083312             1.0000000

 $END
 $IODINE
S   5
1      5899.5791533              0.24188269271E-03
2       898.54238765             0.15474041742E-02
3       200.37237912             0.42836684457E-02
4        31.418053840           -0.39417936275E-01
5        15.645987838            0.96086691992
S   2
1        11.815741857            0.75961524091
2         6.4614458287           0.42495501835
S   1
1         2.3838067579           1.0000000
S   1
1         1.1712089662           1.0000000
S   1
1         0.32115875757          1.0000000
S   1
1         0.12387919364          1.0000000
P   4
1        12.984316904           -0.49096186164E-01
2         3.6199503008           0.38914432482
3         2.0232273090           0.65610817262
4         1.0367490559           0.31803551647
P   3
1       197.30030547             0.73951226905E-03
2        20.061411349            0.66168450008E-01
3         9.7631460485          -0.28554662348
P   1
1         0.45937816000          1.0000000
P   1
1         0.19116532928          1.0000000
P   1
1         0.74878813023E-01      1.0000000
D   6
1       119.12671745             0.82596039573E-03
2        33.404240134            0.68377675770E-02
3        17.805918203           -0.10308158997E-01
4         4.8990510353           0.22670457658
5         2.4516753106           0.44180113937
6         1.1820693432           0.36775472225
D   1
1         0.52923110068          1.0000000
D   1
1         0.17000000000          1.0000000
F   1
1         2.1800000              1.0000000
F   1
1         0.44141808             1.0000000

 $END

 $ECP
I-ECP GEN    28    3
4     ----- f-ul potential -----
    -21.84204000      2      19.45860900
    -28.46819100      2      19.34926000
     -0.24371300      2       4.82376700
     -0.32080400      2       4.88431500
7     ----- s-f potential -----
     49.99429300      2      40.01583500
    281.02531700      2      17.42974700
     61.57332600      2       9.00548400
     21.84204000      2      19.45860900
     28.46819100      2      19.34926000
      0.24371300      2       4.82376700
      0.32080400      2       4.88431500
8     ----- p-f potential -----
     67.44284100      2      15.35546600
    134.88113700      2      14.97183300
     14.67505100      2       8.96016400
     29.37566600      2       8.25909600
     21.84204000      2      19.45860900
     28.46819100      2      19.34926000
      0.24371300      2       4.82376700
      0.32080400      2       4.88431500
10    ----- d-f potential -----
     35.43952900      2      15.06890800
     53.17605700      2      14.55532200
      9.06719500      2       6.71864700
     13.20693700      2       6.45639300
      0.08933500      2       1.19177900
      0.05238000      2       1.29115700
     21.84204000      2      19.45860900
     28.46819100      2      19.34926000
      0.24371300      2       4.82376700
      0.32080400      2       4.88431500
I-ECP 
 $END

!TRAVIS-CI SMALL
