! I2---HCN complex RI-MP2 energy + gradient calculation using auxiliary basis with high angular momentum (H,I)
! Uses auxdef21 external auxiliary file in auxdata folder
!                         ----------------------
!                         GRADIENT OF THE ENERGY
!                         ----------------------
!
! UNITS ARE HARTREE/BOHR    E'X               E'Y               E'Z
!    1 I                0.000000000       0.000000000       0.003075676
!    2 I                0.000000000       0.000000000      -0.002629282
!    3 N                0.000000000       0.000000000      -0.021163632
!    4 C                0.000000000       0.000000000       0.020866323
!    5 H                0.000000000       0.000000000      -0.000149084
!
!                   MAXIMUM GRADIENT =    0.021163632
!                       RMS GRADIENT =    0.007744666
!  $VIB
!          IVIB=   0 IATOM=   0 ICOORD=   0 E=     -686.8718772976
!  0.000000000E+00 0.000000000E+00 3.075675546E-03 0.000000000E+00 0.000000000E+00
! -2.629281646E-03 0.000000000E+00 0.000000000E+00-2.116363226E-02 0.000000000E+00
!  0.000000000E+00 2.086632251E-02 0.000000000E+00 0.000000000E+00-1.490841456E-04
!  0.000000000E+00 0.000000000E+00-4.688482506E+00

 $CONTRL SCFTYP=RHF MPLEVL=2 RUNTYP=gradient ispher=1 pp=read $END
 $SYSTEM MWORDS=2 memddi=100 $END
 $BASIS  basnam(1)=iodine,iodine,nitrogen,carbon,hydrogen  $END
 $SCF    DIRSCF=.TRUE. $END
 $INTGRL INTOMP=1 $END
 $mp2 code=omprimp2 $end
 $auxbas cabnam=auxdef21 extcab=.true. $end
 $GUESS GUESS=HUCKEL $END
 $SCF DIRSCF=.TRUE. $END
 $DATA 
Title
Cnv   2 

I    53.0     0.00000000     0.00000000     1.82785654
I    53.0     0.00000000     0.00000000    -0.87045312
N     7.0     0.00000000     0.00000000    -3.89933085
C     6.0     0.00000000     0.00000000    -5.05459595
H     1.0     0.00000000     0.00000000    -6.12227392
 $END
!----------------------------------------------------------------------
! Basis Set Exchange
! Version v0.8.13
! https://www.basissetexchange.org
!----------------------------------------------------------------------
!   Basis set: def2-TZVP
! Description: def2-TZVP
!        Role: orbital
!     Version: 1  (Data from Turbomole 7.3)
!----------------------------------------------------------------------

 $IODINE
S   5
1      5899.5791533              0.24188269271E-03
2       898.54238765             0.15474041742E-02
3       200.37237912             0.42836684457E-02
4        31.418053840           -0.39417936275E-01
5        15.645987838            0.96086691992
S   2
1        11.815741857            0.75961524091
2         6.4614458287           0.42495501835
S   1
1         2.3838067579           1.0000000
S   1
1         1.1712089662           1.0000000
S   1
1         0.32115875757          1.0000000
S   1
1         0.12387919364          1.0000000
P   4
1        12.984316904           -0.49096186164E-01
2         3.6199503008           0.38914432482
3         2.0232273090           0.65610817262
4         1.0367490559           0.31803551647
P   3
1       197.30030547             0.73951226905E-03
2        20.061411349            0.66168450008E-01
3         9.7631460485          -0.28554662348
P   1
1         0.45937816000          1.0000000
P   1
1         0.19116532928          1.0000000
P   1
1         0.74878813023E-01      1.0000000
D   6
1       119.12671745             0.82596039573E-03
2        33.404240134            0.68377675770E-02
3        17.805918203           -0.10308158997E-01
4         4.8990510353           0.22670457658
5         2.4516753106           0.44180113937
6         1.1820693432           0.36775472225
D   1
1         0.52923110068          1.0000000
D   1
1         0.17000000000          1.0000000
F   1
1         2.1800000              1.0000000
F   1
1         0.44141808             1.0000000

 $END

 $HYDROGEN
S   3
1        34.0613410              0.60251978E-02
2         5.1235746              0.45021094E-01
3         1.1646626              0.20189726
S   1
1         0.32723041             1.0000000
S   1
1         0.10307241             1.0000000
P   1
1         0.8000000              1.0000000

 $END
 $CARBON
S   6
1     13575.3496820              0.22245814352E-03
2      2035.2333680              0.17232738252E-02
3       463.22562359             0.89255715314E-02
4       131.20019598             0.35727984502E-01
5        42.853015891            0.11076259931
6        15.584185766            0.24295627626
S   2
1         6.2067138508           0.41440263448
2         2.5764896527           0.23744968655
S   1
1         0.57696339419          1.0000000
S   1
1         0.22972831358          1.0000000
S   1
1         0.95164440028E-01      1.0000000
P   4
1        34.697232244            0.53333657805E-02
2         7.9582622826           0.35864109092E-01
3         2.3780826883           0.14215873329
4         0.81433208183          0.34270471845
P   1
1         0.28887547253           .46445822433
P   1
1         0.10056823671           .24955789874
D   1
1         1.09700000             1.0000000
D   1
1         0.31800000             1.0000000
F   1
1         0.76100000             1.0000000

 $END
 $NITROGEN
S   6
1     19730.8006470              0.21887984991E-03
2      2957.8958745              0.16960708803E-02
3       673.22133595             0.87954603538E-02
4       190.68249494             0.35359382605E-01
5        62.295441898            0.11095789217
6        22.654161182            0.24982972552
S   2
1         8.9791477428           0.40623896148
2         3.6863002370           0.24338217176
S   1
1         0.84660076805          1.0000000
S   1
1         0.33647133771          1.0000000
S   1
1         0.13647653675          1.0000000
P   4
1        49.200380510            0.55552416751E-02
2        11.346790537            0.38052379723E-01
3         3.4273972411           0.14953671029
4         1.1785525134           0.34949305230
P   1
1         0.41642204972           .45843153697
P   1
1         0.14260826011           .24428771672
D   1
1         1.65400000             1.0000000
D   1
1         0.46900000             1.0000000
F   1
1         1.09300000             1.0000000

 $END
 $ECP
I-ECP GEN    28    3
4     ----- f-ul potential -----
    -21.84204000      2      19.45860900
    -28.46819100      2      19.34926000
     -0.24371300      2       4.82376700
     -0.32080400      2       4.88431500
7     ----- s-f potential -----
     49.99429300      2      40.01583500
    281.02531700      2      17.42974700
     61.57332600      2       9.00548400
     21.84204000      2      19.45860900
     28.46819100      2      19.34926000
      0.24371300      2       4.82376700
      0.32080400      2       4.88431500
8     ----- p-f potential -----
     67.44284100      2      15.35546600
    134.88113700      2      14.97183300
     14.67505100      2       8.96016400
     29.37566600      2       8.25909600
     21.84204000      2      19.45860900
     28.46819100      2      19.34926000
      0.24371300      2       4.82376700
      0.32080400      2       4.88431500
10    ----- d-f potential -----
     35.43952900      2      15.06890800
     53.17605700      2      14.55532200
      9.06719500      2       6.71864700
     13.20693700      2       6.45639300
      0.08933500      2       1.19177900
      0.05238000      2       1.29115700
     21.84204000      2      19.45860900
     28.46819100      2      19.34926000
      0.24371300      2       4.82376700
      0.32080400      2       4.88431500
I-ECP 
N-ECP None
C-ECP None
H-ECP None
 $END

!TRAVIS-CI SMALL

