 $CONTRL SCFTYP=RHF RUNTYP=HESSIAN MAXIT=50 MULT=1 PP=READ 
        ISPHER=1  MPLEVL=2 $END
 $INTGRL INTOMP=1 $END
 $BASIS basnam(1)=tungsten,oxygen,oxygen,oxygen,
        tungsten,oxygen,oxygen,oxygen $END   
 $MP2 CODE=OMPRIMP2 $END
 $RIMP2 OTHAUX=.F. IVMTD=2 GOSMP=.F. USEDM=.TRUE. $END
 $auxbas cabnam=auxdef21 extcab=.true. $end
 $SYSTEM  MEMDDI=100 MWORDS=100 $END
 $SCF DIRSCF=.TRUE. DIIS=.t. $END
 $FORCE METHOD=SEMINUM VIBANL=.TRUE. $END
 $DATA
Def2-TZVP basis for all atoms
C1
 W          74.0   0.0105923322  -0.2413562461   0.0000000000
 O           8.0   0.9284621748   1.9285552279   0.0000000000
 O           8.0  -1.4428007229   0.7565150745  -0.0000000000
 O           8.0  -0.5548361554  -1.8849122949   0.0000000000
 W          74.0   2.7900813096   1.8452943714   0.0000000000
 O           8.0   3.3557468920   3.4888375513  -0.0000000000
 O           8.0   1.8722456359  -0.3246603750  -0.0000000000
 O           8.0   4.2432824477   0.8472419978  -0.0000000000
 $END
 $TUNGSTEN
S   3
1        30.000000000            0.32246483410
2        27.000000000           -0.46692257214
3        13.078045684            0.42699563776
S   1
1         4.8100449717           1.0000000
S   1
1         0.98497804263          1.0000000
S   1
1         0.44910485344          1.0000000
S   1
1         0.11448352920          1.0000000
S   1
1         0.41720421956E-01      1.0000000
P   4
1        17.000000000           -0.37817768433E-01
2        12.431973432            0.10905673845
3         5.1586217658          -0.29399955020
4         1.2801454812           0.51560726697
P   1
1         0.62856790898          1.0000000
P   1
1         0.29380423553          1.0000000
P   1
1         0.06500000000          1.0000000
D   4
1         7.4064737315           0.86993963018E-01
2         5.9026268603          -0.17667540011
3         1.2984756750           0.55145697030
4         0.57153508541          0.95313596535
D   1
1         0.23845526606          1.0000000
D   1
1         0.91144267331E-01      1.0000000
F   1
1         0.4319900              1.0000000

 $END
 $OXYGEN
S   6
1     27032.3826310              0.21726302465E-03
2      4052.3871392              0.16838662199E-02
3       922.32722710             0.87395616265E-02
4       261.24070989             0.35239968808E-01
5        85.354641351            0.11153519115
6        31.035035245            0.25588953961
S   2
1        12.260860728            0.39768730901
2         4.9987076005           0.24627849430
S   1
1         1.1703108158           1.0000000
S   1
1         0.46474740994          1.0000000
S   1
1         0.18504536357          1.0000000
P   4
1        63.274954801            0.60685103418E-02
2        14.627049379            0.41912575824E-01
3         4.4501223456           0.16153841088
4         1.5275799647           0.35706951311
P   1
1         0.52935117943           .44794207502
P   1
1         0.17478421270           .24446069663
D   1
1         2.31400000             1.0000000
D   1
1         0.64500000             1.0000000
F   1
1         1.42800000             1.0000000

 $END

 $ECP
W-ECP GEN    60    3
1     ----- f-ul potential -----
     14.15257947      2       2.25888846
3     ----- s-f potential -----
   1192.39588226      2      14.32285640
     32.52293315      2       7.16142810
    -14.15257947      2       2.25888846
3     ----- p-f potential -----
    359.03196711      2      10.02164110
     24.03038019      2       5.01082040
    -14.15257947      2       2.25888846
3     ----- d-f potential -----
    108.30134897      2       6.59799743
     10.98252827      2       3.29899871
    -14.15257947      2       2.25888846
O-ECP NONE
O-ECP NONE
O-ECP NONE
W-ECP
O-ECP NONE
O-ECP NONE
O-ECP NONE
 $END

!TRAVIS-CI MEDIUM

