! 14 minutes on Skylake - 6 cores + 8 threads per core
!
! Input file modified on September 21, 2021. Uses external auxiliary basis with high angular momenta (H,I)
! Uses auxdef21 external auxiliary file in auxdata folder
!
 $CONTRL SCFTYP=RHF RUNTYP=HESSIAN MAXIT=200 MULT=1 ECP=READ $END
 $CONTRL MPLEVL=2 $END
 $INTGRL INTOMP=1 $END
 $MP2 CODE=OMPRIMP2 $END
 $RIMP2 OTHAUX=.F. IVMTD=2 GOSMP=.F. USEDM=.TRUE. $END
 $auxbas cabnam=auxdef21 extcab=.true. $end
 $SYSTEM TIMLIM=525600 MEMORY=1000000000 MEMDDI=1000 PARALL=.TRUE. $END
 $SCF DIRSCF=.TRUE. DIIS=.t. FDIFF=.t. $END
 $FORCE METHOD=SEMINUM VIBANL=.TRUE. $END
 $DATA
LANL2DZ for W / 6-31Gdp for all others
C1
W    74.0    -0.16503106    -0.04190258     0.00000000
S   4
1         2.1370000              1.2985088
2         1.3470000             -1.8102429
3         0.4366000             -1.0844531
4         0.1883000              1.2580618
S   3
1         2.1370000             -1.3916151
2         1.3470000              1.7510261
3         0.4366000              0.4694647
S   1
1         0.0518000              1.0000000
P   3
1         3.0050000             -0.2405563
2         1.2280000              0.7364092
3         0.4415000              0.4881487
P   2
1         0.4010000             -0.1497499
2         0.0900000              1.0707463
P   1
1         0.0280000              1.0000000
D   2
1         0.9519000              0.4985265
2         0.3270000              0.6111110
D   1
1         0.1054000              1.0000000

O     8.0     1.04039145     1.53889692     0.00000000
S   6
1         0.5484671660E+04       0.1831074430E-02
2         0.8252349460E+03       0.1395017220E-01
3         0.1880469580E+03       0.6844507810E-01
4         0.5296450000E+02       0.2327143360E+00
5         0.1689757040E+02       0.4701928980E+00
6         0.5799635340E+01       0.3585208530E+00
L   3
1         0.1553961625E+02      -0.1107775495E+00       0.7087426823E-01
2         0.3599933586E+01      -0.1480262627E+00       0.3397528391E+00
3         0.1013761750E+01       0.1130767015E+01       0.7271585773E+00
L   1
1         0.2700058226E+00       0.1000000000E+01       0.1000000000E+01
D   1
1         0.8000000000E+00       1.0000000

O     8.0    -1.56638563     0.44540891     0.00000000
S   6
1         0.5484671660E+04       0.1831074430E-02
2         0.8252349460E+03       0.1395017220E-01
3         0.1880469580E+03       0.6844507810E-01
4         0.5296450000E+02       0.2327143360E+00
5         0.1689757040E+02       0.4701928980E+00
6         0.5799635340E+01       0.3585208530E+00
L   3
1         0.1553961625E+02      -0.1107775495E+00       0.7087426823E-01
2         0.3599933586E+01      -0.1480262627E+00       0.3397528391E+00
3         0.1013761750E+01       0.1130767015E+01       0.7271585773E+00
L   1
1         0.2700058226E+00       0.1000000000E+01       0.1000000000E+01
D   1
1         0.8000000000E+00       1.0000000

O     8.0    -0.52266252    -1.43538296     0.00000000
S   6
1         0.5484671660E+04       0.1831074430E-02
2         0.8252349460E+03       0.1395017220E-01
3         0.1880469580E+03       0.6844507810E-01
4         0.5296450000E+02       0.2327143360E+00
5         0.1689757040E+02       0.4701928980E+00
6         0.5799635340E+01       0.3585208530E+00
L   3
1         0.1553961625E+02      -0.1107775495E+00       0.7087426823E-01
2         0.3599933586E+01      -0.1480262627E+00       0.3397528391E+00
3         0.1013761750E+01       0.1130767015E+01       0.7271585773E+00
L   1
1         0.2700058226E+00       0.1000000000E+01       0.1000000000E+01
D   1
1         0.8000000000E+00       1.0000000

W    74.0     2.97703862     1.71835208     0.00000000
S   4
1         2.1370000              1.2985088
2         1.3470000             -1.8102429
3         0.4366000             -1.0844531
4         0.1883000              1.2580618
S   3
1         2.1370000             -1.3916151
2         1.3470000              1.7510261
3         0.4366000              0.4694647
S   1
1         0.0518000              1.0000000
P   3
1         3.0050000             -0.2405563
2         1.2280000              0.7364092
3         0.4415000              0.4881487
P   2
1         0.4010000             -0.1497499
2         0.0900000              1.0707463
P   1
1         0.0280000              1.0000000
D   2
1         0.9519000              0.4985265
2         0.3270000              0.6111110
D   1
1         0.1054000              1.0000000

O     8.0     3.29457903     3.01674938     0.00000000
S   6
1         0.5484671660E+04       0.1831074430E-02
2         0.8252349460E+03       0.1395017220E-01
3         0.1880469580E+03       0.6844507810E-01
4         0.5296450000E+02       0.2327143360E+00
5         0.1689757040E+02       0.4701928980E+00
6         0.5799635340E+01       0.3585208530E+00
L   3
1         0.1553961625E+02      -0.1107775495E+00       0.7087426823E-01
2         0.3599933586E+01      -0.1480262627E+00       0.3397528391E+00
3         0.1013761750E+01       0.1130767015E+01       0.7271585773E+00
L   1
1         0.2700058226E+00       0.1000000000E+01       0.1000000000E+01
D   1
1         0.8000000000E+00       1.0000000

O     8.0     4.25077724     1.13268733     0.00000000
S   6
1         0.5484671660E+04       0.1831074430E-02
2         0.8252349460E+03       0.1395017220E-01
3         0.1880469580E+03       0.6844507810E-01
4         0.5296450000E+02       0.2327143360E+00
5         0.1689757040E+02       0.4701928980E+00
6         0.5799635340E+01       0.3585208530E+00
L   3
1         0.1553961625E+02      -0.1107775495E+00       0.7087426823E-01
2         0.3599933586E+01      -0.1480262627E+00       0.3397528391E+00
3         0.1013761750E+01       0.1130767015E+01       0.7271585773E+00
L   1
1         0.2700058226E+00       0.1000000000E+01       0.1000000000E+01
D   1
1         0.8000000000E+00       1.0000000

O     8.0     1.88877463     0.04070504     0.00000000
S   6
1         0.5484671660E+04       0.1831074430E-02
2         0.8252349460E+03       0.1395017220E-01
3         0.1880469580E+03       0.6844507810E-01
4         0.5296450000E+02       0.2327143360E+00
5         0.1689757040E+02       0.4701928980E+00
6         0.5799635340E+01       0.3585208530E+00
L   3
1         0.1553961625E+02      -0.1107775495E+00       0.7087426823E-01
2         0.3599933586E+01      -0.1480262627E+00       0.3397528391E+00
3         0.1013761750E+01       0.1130767015E+01       0.7271585773E+00
L   1
1         0.2700058226E+00       0.1000000000E+01       0.1000000000E+01
D   1
1         0.8000000000E+00       1.0000000

 $END
 $ECP
W-ECP GEN    60    4
6     ----- g-ul potential -----
    -60.0000000       1     839.4489120
   -664.1987920       2     192.8532482
   -238.6143651       2      48.6651974
    -88.4192407       2      12.9221727
    -20.6062326       2       4.5748890
     -0.9283792       2       1.2681796
7     ----- s-g potential -----
      3.0000000       0     313.4267518
     39.1192967       1     699.3155462
   1180.9692974       2     259.8923741
    728.9564210       2      85.4999980
    293.5591140       2      22.7635925
    562.6731493       2       4.0764317
   -457.3807185       2       3.8827162
5     ----- p-g potential -----
      2.0000000       0     224.3926424
     63.8948393       1      61.6736931
    205.8901837       2      19.1469043
    312.1427153       2       3.5565710
   -231.3961281       2       3.3263210
5     ----- d-g potential -----
      3.0000000       0     161.5278958
     55.3315256       1      75.5814607
    267.1976653       2      38.9115852
    146.8485578       2      12.5426271
     44.1055243       2       3.4615187
5     ----- f-g potential -----
      4.0000000       0      91.2102727
     50.3065523       1      45.4152756
    190.7363098       2      22.0452967
     91.7605552       2       6.9810413
      8.4247312       2       1.8380480
 O NONE
 O NONE
 O NONE
 W-ECP
 O NONE
 O NONE
 O NONE
 $END

!TRAVIS-CI MEDIUM
