!   EXAM48.
!   Single-point gradient calculation for 1UAO protein with DFTB3-D/C-PCM,
!   where the third-order Taylor expansion of the electron density (NDFTB=3)
!   and the dispersion correction (suffix of -D) with the UFF formulation
!   (DISP=UFF) are included. In PCM, non-electrostatic contributions (with
!   ICAV=1 and IDISP=1) are also included.
!
!   The "PARAM=3OB31" option species the location of the directory where
!   Slater-Koster tables are read. The PARAM directory should exist in
!   the path (DFTBPAR) specified in gms-files.csh.
!
!   The calculated total energies with DFTB3-D/C-PCM should be
!   -190.6256907074 hartree, and it is obtained after 15 SCF iterations.
!   The dispersion energy is 0.6181023432 hartree, so the total energy
!   without dispersion correction should be -191.2437930506 hartree.
!
!   The electrostatic interaction is -302.59 kcal/mol, and this corresponds
!   to the first two G_full values in Table in Phys. Chem. Chem. Phys.
!   2016, 18, 22047-22061.
!
!   The gradient should be
!     MAXIMUM GRADIENT =    0.101279740
!         RMS GRADIENT =    0.023405177
!
!   This calculation completed in five seconds on Xeon E5-1620 v3.
!
 $CONTRL RUNTYP=GRADIENT ICHARG=-2 $END
 $SYSTEM MWORDS=100 modio=31 $END
 $SCF NPUNCH=0 npreo(1)=2,1,2,1 $END
 $PCM SOLVNT=WATER ICAV=1 IDISP=1 modpar=2 $END
 $BASIS GBASIS=DFTB $END
 $DFTB NDFTB=3 DAMPXH=.TRUE. DISP=UFF param=3OB-3-1 $END
 $DATA
 de novo protein chignolin, PDB: 1UAO
 C1
N    7.0       -6.77799988       -1.42400002        4.19999981
C    6.0       -6.87799978       -0.70800000        2.89599991
C    6.0       -5.55700016       -0.83999997        2.13800001
O    8.0       -4.63999987       -1.50399995        2.57900000
H    1.0       -5.77799988       -1.52699995        4.46199989
H    1.0       -7.21400023       -2.36500001        4.11199999
H    1.0       -7.27299976       -0.87900001        4.93300009
H    1.0       -7.67700005       -1.13999999        2.30900002
H    1.0       -7.08500004        0.33600000        3.07299995
N    7.0       -5.45200014       -0.21200000        0.99900001
C    6.0       -4.18900013       -0.30199999        0.21300000
C    6.0       -3.19700003        0.74400002        0.71700001
O    8.0       -3.25200009        1.89800000        0.34200001
C    6.0       -4.48999977       -0.04800000       -1.26400006
C    6.0       -3.21600008       -0.14100000       -2.06800008
C    6.0       -2.77999997       -1.38300002       -2.54399991
C    6.0       -2.47399998        1.01499999       -2.34200001
C    6.0       -1.60099995       -1.47000003       -3.29299998
C    6.0       -1.29499996        0.92699999       -3.09100008
C    6.0       -0.85799998       -0.31500000       -3.56800008
O    8.0        0.30399999       -0.40200001       -4.30700016
H    1.0       -6.20300007        0.31700000        0.66000003
H    1.0       -3.76300001       -1.28799999        0.32800001
H    1.0       -5.18900013       -0.78799999       -1.61600006
H    1.0       -4.91800022        0.93699998       -1.38000000
H    1.0       -3.35200000       -2.27300000       -2.33200002
H    1.0       -2.81100011        1.97300005       -1.97500002
H    1.0       -1.26499999       -2.42899990       -3.66000009
H    1.0       -0.72200000        1.81799996       -3.30299997
H    1.0        0.76499999        0.43700001       -4.23400021
N    7.0       -2.28699994        0.34900001        1.55999994
C    6.0       -1.28699994        1.32000005        2.08400011
C    6.0       -0.30100000        1.67700005        0.96399999
O    8.0        0.43300000        0.82599998        0.50199997
C    6.0       -0.52300000        0.68699998        3.24900007
C    6.0        0.41800001        1.72399998        3.86599994
O    8.0       -0.06900000        2.76200008        4.28299999
O    8.0        1.60899997        1.46300006        3.91100001
H    1.0       -2.25900006       -0.58800000        1.84599996
H    1.0       -1.79499996        2.20700002        2.42700005
H    1.0       -1.22399998        0.34599999        3.99699998
H    1.0        0.05500000       -0.15099999        2.88899994
N    7.0       -0.31099999        2.92199993        0.55699998
C    6.0        0.57900000        3.40700006       -0.51300001
C    6.0        2.00200009        3.57999992        0.02100000
O    8.0        2.94300008        3.73799992       -0.73100001
C    6.0       -0.03300000        4.75199986       -0.91100001
C    6.0       -0.87599999        5.22100019        0.29800001
C    6.0       -1.19900000        3.96000004        1.12100005
H    1.0        0.56699997        2.73200011       -1.35300004
H    1.0        0.75000000        5.46700001       -1.12300003
H    1.0       -0.67000002        4.63000011       -1.77300000
H    1.0       -0.30800000        5.92100000        0.89499998
H    1.0       -1.79200006        5.67899990       -0.04200000
H    1.0       -0.97700000        4.12500000        2.16700006
H    1.0       -2.23200011        3.67700005        0.99100000
N    7.0        2.16799998        3.54200006        1.31500006
C    6.0        3.53099990        3.69400001        1.89300001
C    6.0        4.42000008        2.56699991        1.36800003
O    8.0        5.57700014        2.76600003        1.05499995
C    6.0        3.45000005        3.61400008        3.41799998
C    6.0        4.65199995        4.33400011        4.03000021
C    6.0        5.62900019        3.30299997        4.59700012
O    8.0        5.64900017        2.19300008        4.09000015
O    8.0        6.34100008        3.64000010        5.52899981
H    1.0        1.39699996        3.40599990        1.90400004
H    1.0        3.94400001        4.64799976        1.60000002
H    1.0        2.53699994        4.08400011        3.75600004
H    1.0        3.45700002        2.57999992        3.72700000
H    1.0        5.14699984        4.91800022        3.26699996
H    1.0        4.31799984        4.98500013        4.82299995
N    7.0        3.88100004        1.38300002        1.26100004
C    6.0        4.68400002        0.23899999        0.74800003
C    6.0        4.21799994       -0.10100000       -0.66900003
O    8.0        4.94099998       -0.68699998       -1.44900000
C    6.0        4.48600006       -0.97399998        1.66100001
O    8.0        3.20400000       -1.53999996        1.42299998
C    6.0        4.58900023       -0.53500003        3.12299991
H    1.0        2.94400001        1.24800003        1.51400006
H    1.0        5.72900009        0.50999999        0.72899997
H    1.0        5.24800014       -1.70899999        1.45599997
H    1.0        3.21099997       -2.44000006        1.75699997
H    1.0        5.30900002        0.26499999        3.20799994
H    1.0        4.90600014       -1.37100005        3.72799993
H    1.0        3.62500000       -0.18799999        3.46399999
N    7.0        3.01399994        0.27200001       -1.00800002
C    6.0        2.49799991       -0.01800000       -2.37500000
C    6.0        1.77999997       -1.36800003       -2.38499999
O    8.0        1.81500006       -2.09100008       -3.36199999
H    1.0        2.45000005        0.74900001       -0.36300001
H    1.0        1.80799997        0.75999999       -2.67000008
H    1.0        3.32299995       -0.04900000       -3.07100010
N    7.0        1.12699997       -1.71899998       -1.30999994
C    6.0        0.41100001       -3.02500010       -1.27400005
C    6.0       -0.64099997       -3.01300001       -0.16200000
O    8.0       -0.63300002       -2.16400003        0.70700002
C    6.0        1.41799998       -4.14699984       -1.01100004
O    8.0        2.63299990       -3.58699989       -0.53200001
C    6.0        1.68200004       -4.91200018       -2.30800009
H    1.0        1.10800004       -1.12500000       -0.53100002
H    1.0       -0.07300000       -3.19499993       -2.22399998
H    1.0        1.01800001       -4.82499981       -0.27300000
H    1.0        3.27500010       -4.29600000       -0.44999999
H    1.0        0.81300002       -5.50099993       -2.56200004
H    1.0        2.53299999       -5.56300020       -2.17600012
H    1.0        1.88499999       -4.21000004       -3.10400009
N    7.0       -1.54499996       -3.95499992       -0.18400000
C    6.0       -2.59800005       -4.01100016        0.86799997
C    6.0       -1.96000004       -4.39499998        2.20499992
O    8.0       -1.57599998       -5.52799988        2.41700006
C    6.0       -3.64000010       -5.06699991        0.48699999
C    6.0       -3.84800005       -5.06799984       -0.99599999
C    6.0       -3.21600008       -5.88199997       -1.87300003
C    6.0       -4.74300003       -4.23600006       -1.78600001
N    7.0       -3.66400003       -5.59600019       -3.15000010
C    6.0       -4.60799980       -4.59100008       -3.14800000
C    6.0       -5.64799976       -3.21799994       -1.45400000
C    6.0       -5.34899998       -3.95799994       -4.14599991
C    6.0       -6.39799976       -2.57699990       -2.45499992
C    6.0       -6.24800014       -2.94700003       -3.79900002
H    1.0       -1.53199995       -4.62699986       -0.89200002
H    1.0       -3.07500005       -3.04699993        0.95700002
H    1.0       -3.29500008       -6.04099989        0.80000001
H    1.0       -4.57499981       -4.84299994        0.98000002
H    1.0       -2.47799993       -6.62799978       -1.61800003
H    1.0       -3.36400008       -6.04199982       -3.96799994
H    1.0       -5.76599979       -2.92700005       -0.42199999
H    1.0       -5.22800016       -4.24800014       -5.17999983
H    1.0       -7.09299994       -1.79600000       -2.18700004
H    1.0       -6.82700014       -2.45099998       -4.56400013
N    7.0       -1.84399998       -3.46099997        3.10899997
C    6.0       -1.22899997       -3.77399993        4.43100023
C    6.0       -1.87699997       -5.03100014        5.01399994
O    8.0       -1.28900003       -6.09200001        4.88199997
O    8.0       -2.94899988       -4.91200018        5.58400011
H    1.0       -2.15899992       -2.55299997        2.91799998
H    1.0       -0.16900000       -3.93899989        4.30499983
H    1.0       -1.38699996       -2.94600010        5.10599995
 $END
