!  O2 ANION IN WATER
!  UB3LYP/6-31+G*/CMIRS/0.001
!                                                           AU          KCAL/MOL
!  EGAS = INTERNAL ENERGY OF SOLUTE IN GAS PHASE      -150.28575619
!
!  EINT = INTERNAL ENERGY OF SOLUTE IN SOLUTION       -150.28542588
!    DINT  = EINT-EGAS = SOLUTE  POLARIZATION ENERGY     0.00033031      0.20727
!    DGRXN = ERXNFLD/2 = SOLVENT POLARIZATION ENERGY    -0.11466065    -71.95064
!  SS(V)PE  DELTAG = DINT+DGRXN                         -0.11433034    -71.74337
!  SS(V)PE  GTOTAL = EINT+DGRXN                       -150.40008653
!
!    DISPERSION ENERGY                                  -0.00455661     -2.85931
!    EXCHANGE ENERGY                                     0.00923355      5.79414
!    FIELD EXTREMUM (NEGATIVE FIELD) ENERGY             -0.02485725    -15.59816
!    FIELD EXTREMUM (POSITIVE FIELD) ENERGY              0.00000000      0.00000
!  DEFESR   DELTAG = DISP+EXCH+FNEG+FPOS ENERGIES       -0.02018031    -12.66333
!  CMIRS    DELTAG = SS(V)PE  DELTAG + DEFESR DELTAG    -0.13451065    -84.40670
!  CMIRS    GTOTAL = SS(V)PE  GTOTAL + DEFESR DELTAG  -150.42026683
!
 $contrl scftyp=uhf dfttyp=b3lyp mult=2 runtyp=energy
 coord=unique units=angs maxit=30 icharg=-1 $end
 $system memory=12000000 $end
 $basis  gbasis=n31 ngauss=6 ndfunc=1 diffsp=.t.  $end
 $dft method=grid nrad=96 nleb=1202 nrad0=96 nleb0=1202 $end
 $svp rhoiso=0.001 dielst=78.36 nptleb=1202 idef=1 egas=-150.2857561864 $end
 $guess guess=moread norb=38 $end
 $DATA  
o2 anion
C1
O           8.0      0.0000000000      0.0000000000      0.6668200000
O           8.0      0.0000000000      0.0000000000     -0.6668200000
 $END
 - o2anion gas vecs -
--- OPEN SHELL ORBITALS --- GENERATED AT Tue Jul 24 11:41:18 2018
o2 anion                                                                        
E(U-B3LYP)=     -150.2857561864, E(NUC)=   25.3946671901,   15 ITERS
 $VEC   
 1  1 7.07167578E-01 1.87105868E-02 0.00000000E+00 0.00000000E+00-9.58872954E-04
 1  2 8.24996515E-03 0.00000000E+00 0.00000000E+00 4.13123138E-04-1.42833033E-03
 1  3 0.00000000E+00 0.00000000E+00 3.85777084E-05-5.86992084E-03-5.77871449E-03
 1  4-5.85931390E-03-1.62966591E-05 0.00000000E+00 0.00000000E+00 6.96636739E-01
 1  5 1.84422987E-02 0.00000000E+00 0.00000000E+00 9.52706928E-04 8.08435892E-03
 1  6 0.00000000E+00 0.00000000E+00-4.17589632E-04-1.29016988E-03 0.00000000E+00
 1  7 0.00000000E+00-5.26464390E-08-5.77808622E-03-5.68840793E-03-5.76567043E-03
 1  8-1.60234616E-05 0.00000000E+00 0.00000000E+00
 2  1-6.96557089E-01-1.77050463E-02 0.00000000E+00 0.00000000E+00 4.01452978E-04
 2  2-1.11982458E-02 0.00000000E+00 0.00000000E+00 3.49374693E-04 9.87392780E-03
 2  3 0.00000000E+00 0.00000000E+00-2.81528879E-03 6.11433461E-03 6.01315686E-03
 2  4 6.22324494E-03 1.80783445E-05 0.00000000E+00 0.00000000E+00 7.07089016E-01
 2  5 1.79839410E-02 0.00000000E+00 0.00000000E+00 4.15853895E-04 1.13200611E-02
 2  6 0.00000000E+00 0.00000000E+00 3.43093318E-04-9.89414780E-03 0.00000000E+00
 2  7 0.00000000E+00-2.81553620E-03-6.20145268E-03-6.09891723E-03-6.31029977E-03
 2  8-1.83210960E-05 0.00000000E+00 0.00000000E+00
 3  1-1.53995608E-01 3.49476952E-01 0.00000000E+00 0.00000000E+00-1.40187040E-01
 3  2 2.80926924E-01 0.00000000E+00 0.00000000E+00-4.38502664E-02-1.18515303E-03
 3  3 0.00000000E+00 0.00000000E+00 1.14348024E-02-1.14550431E-02-2.75084094E-03
 3  4 2.38735956E-02-1.55528903E-03 0.00000000E+00 0.00000000E+00-1.53995157E-01
 3  5 3.49480408E-01 0.00000000E+00 0.00000000E+00 1.40187617E-01 2.80908584E-01
 3  6 0.00000000E+00 0.00000000E+00 4.38498460E-02-1.01284168E-03 0.00000000E+00
 3  7 0.00000000E+00-1.13687362E-02-1.14535738E-02-2.74931857E-03 2.38756935E-02
 3  8-1.55529782E-03 0.00000000E+00 0.00000000E+00
 4  1 1.68107934E-01-3.82071669E-01 0.00000000E+00 0.00000000E+00-9.98541063E-02
 4  2-4.84195573E-01 0.00000000E+00 0.00000000E+00-2.14480820E-02 1.18809713E-01
 4  3 0.00000000E+00 0.00000000E+00-6.18073239E-02 7.96364476E-03-2.84942547E-03
 4  4 1.69782638E-02 1.93210824E-03 0.00000000E+00 0.00000000E+00-1.68108279E-01
 4  5 3.82069736E-01 0.00000000E+00 0.00000000E+00-9.98540441E-02 4.84203106E-01
 4  6 0.00000000E+00 0.00000000E+00-2.14482256E-02-1.18813092E-01 0.00000000E+00
 4  7 0.00000000E+00-6.18083438E-02-7.96527114E-03 2.84783377E-03-1.69798567E-02
 4  8-1.93211912E-03 0.00000000E+00 0.00000000E+00
 5  1 4.70457496E-02-1.00824285E-01 0.00000000E+00 0.00000000E+00-4.55502889E-01
 5  2-1.80699838E-01 0.00000000E+00 0.00000000E+00-2.34267736E-01-8.35929512E-02
 5  3 0.00000000E+00 0.00000000E+00-4.54423274E-02-5.67355128E-03-1.00048374E-02
 5  4 2.76288685E-02 7.73927619E-04 0.00000000E+00 0.00000000E+00 4.70468561E-02
 5  5-1.00819199E-01 0.00000000E+00 0.00000000E+00 4.55504753E-01-1.80728932E-01
 5  6 0.00000000E+00 0.00000000E+00 2.34262038E-01-8.34417553E-02 0.00000000E+00
 5  7 0.00000000E+00 4.54998100E-02-5.67003249E-03-1.00013306E-02 2.76315447E-02
 5  8 7.73928969E-04 0.00000000E+00 0.00000000E+00
 6  1 0.00000000E+00 0.00000000E+00-6.76532996E-02 4.47426127E-01 0.00000000E+00
 6  2 0.00000000E+00-3.79440205E-02 2.50943334E-01 0.00000000E+00 0.00000000E+00
 6  3-8.05038459E-03 5.32413159E-02 0.00000000E+00 0.00000000E+00 0.00000000E+00
 6  4 0.00000000E+00 0.00000000E+00 3.43786264E-03-2.27363537E-02 0.00000000E+00
 6  5 0.00000000E+00-6.76532990E-02 4.47425860E-01 0.00000000E+00 0.00000000E+00
 6  6-3.79440158E-02 2.50943091E-01 0.00000000E+00 0.00000000E+00-8.05054713E-03
 6  7 5.32425322E-02 0.00000000E+00 0.00000000E+00 0.00000000E+00 0.00000000E+00
 6  8 0.00000000E+00-3.43786077E-03 2.27363431E-02
 7  1 0.00000000E+00 0.00000000E+00 4.38479261E-01 6.63005368E-02 0.00000000E+00
 7  2 0.00000000E+00 2.50526842E-01 3.78810682E-02 0.00000000E+00 0.00000000E+00
 7  3 6.47666179E-02 9.79307383E-03 0.00000000E+00 0.00000000E+00 0.00000000E+00
 7  4 0.00000000E+00 0.00000000E+00-2.34480626E-02-3.54547767E-03 0.00000000E+00
 7  5 0.00000000E+00 4.38478541E-01 6.63003651E-02 0.00000000E+00 0.00000000E+00
 7  6 2.50526327E-01 3.78809426E-02 0.00000000E+00 0.00000000E+00 6.47678550E-02
 7  7 9.79328068E-03 0.00000000E+00 0.00000000E+00 0.00000000E+00 0.00000000E+00
 7  8 0.00000000E+00 2.34480523E-02 3.54547752E-03
 8  1 0.00000000E+00 0.00000000E+00 7.62426213E-02-5.04230814E-01 0.00000000E+00
 8  2 0.00000000E+00 4.98736262E-02-3.29839238E-01 0.00000000E+00 0.00000000E+00
 8  3 2.94178522E-02-1.94555767E-01 0.00000000E+00 0.00000000E+00 0.00000000E+00
 8  4 0.00000000E+00 0.00000000E+00 1.09700245E-03-7.25505513E-03 0.00000000E+00
 8  5 0.00000000E+00-7.62426096E-02 5.04231062E-01 0.00000000E+00 0.00000000E+00
 8  6-4.98736269E-02 3.29839528E-01 0.00000000E+00 0.00000000E+00-2.94177727E-02
 8  7 1.94555182E-01 0.00000000E+00 0.00000000E+00 0.00000000E+00 0.00000000E+00
 8  8 0.00000000E+00 1.09698715E-03-7.25493835E-03
 9  1 0.00000000E+00 0.00000000E+00-4.93180279E-01-7.45716573E-02 0.00000000E+00
 9  2 0.00000000E+00-3.25998894E-01-4.92928535E-02 0.00000000E+00 0.00000000E+00
 9  3-2.47933452E-01-3.74890875E-02 0.00000000E+00 0.00000000E+00 0.00000000E+00
 9  4 0.00000000E+00 0.00000000E+00-7.63255044E-03-1.15408847E-03 0.00000000E+00
 9  5 0.00000000E+00 4.93180808E-01 7.45717693E-02 0.00000000E+00 0.00000000E+00
 9  6 3.25999437E-01 4.92929720E-02 0.00000000E+00 0.00000000E+00 2.47932925E-01
 9  7 3.74889862E-02 0.00000000E+00 0.00000000E+00 0.00000000E+00 0.00000000E+00
 9  8 0.00000000E+00-7.63240370E-03-1.15406589E-03
10  1 5.21457951E-02-1.44255063E-01 0.00000000E+00 0.00000000E+00 1.37469007E-01
10  2-1.97510428E-01 0.00000000E+00 0.00000000E+00-9.62243661E-02-4.34696485E+00
10  3 0.00000000E+00 0.00000000E+00 2.40827183E+00-3.69744537E-03-6.83298299E-03
10  4 4.95627507E-02 5.60226965E-04 0.00000000E+00 0.00000000E+00-5.21321647E-02
10  5 1.44263375E-01 0.00000000E+00 0.00000000E+00 1.37473107E-01 1.97333617E-01
10  6 0.00000000E+00 0.00000000E+00-9.62130159E-02 4.34709501E+00 0.00000000E+00
10  7 0.00000000E+00 2.40829384E+00 3.72181549E-03 6.85732915E-03-4.95442830E-02
10  8-5.60265643E-04 0.00000000E+00 0.00000000E+00
11  1 6.55209530E-02-3.57908766E-02 0.00000000E+00 0.00000000E+00-1.09437594E-01
11  2-7.86725525E-01 0.00000000E+00 0.00000000E+00-1.88177548E-01 9.57173580E-01
11  3 0.00000000E+00 0.00000000E+00 4.88223998E-01 5.45857949E-02 5.27918067E-02
11  4 4.86185227E-02 3.20555920E-04 0.00000000E+00 0.00000000E+00 6.55334775E-02
11  5-3.57882592E-02 0.00000000E+00 0.00000000E+00 1.09416699E-01-7.86907338E-01
11  6 0.00000000E+00 0.00000000E+00 1.88153723E-01 9.57731714E-01 0.00000000E+00
11  7 0.00000000E+00-4.88101085E-01 5.45996261E-02 5.28052248E-02 4.86329748E-02
11  8 3.20627598E-04 0.00000000E+00 0.00000000E+00
12  1 0.00000000E+00 0.00000000E+00 2.45355470E-02-1.62264069E-01 0.00000000E+00
12  2 0.00000000E+00 4.90111402E-02-3.24131395E-01 0.00000000E+00 0.00000000E+00
12  3-1.00979916E-01 6.67824079E-01 0.00000000E+00 0.00000000E+00 0.00000000E+00
12  4 0.00000000E+00 0.00000000E+00-1.30221445E-03 8.61206643E-03 0.00000000E+00
12  5 0.00000000E+00 2.45354984E-02-1.62263233E-01 0.00000000E+00 0.00000000E+00
12  6 4.90112787E-02-3.24131498E-01 0.00000000E+00 0.00000000E+00-1.00980401E-01
12  7 6.67823835E-01 0.00000000E+00 0.00000000E+00 0.00000000E+00 0.00000000E+00
12  8 0.00000000E+00 1.30221787E-03-8.61213053E-03
13  1 0.00000000E+00 0.00000000E+00-1.66256207E-01-2.51392794E-02 0.00000000E+00
13  2 0.00000000E+00-3.36515668E-01-5.08838636E-02 0.00000000E+00 0.00000000E+00
13  3 6.69520716E-01 1.01237225E-01 0.00000000E+00 0.00000000E+00 0.00000000E+00
13  4 0.00000000E+00 0.00000000E+00 9.14381444E-03 1.38261499E-03 0.00000000E+00
13  5 0.00000000E+00-1.66255633E-01-2.51390824E-02 0.00000000E+00 0.00000000E+00
13  6-3.36516633E-01-5.08837784E-02 0.00000000E+00 0.00000000E+00 6.69523604E-01
13  7 1.01236635E-01 0.00000000E+00 0.00000000E+00 0.00000000E+00 0.00000000E+00
13  8 0.00000000E+00-9.14390566E-03-1.38262981E-03
14  1 0.00000000E+00 0.00000000E+00-2.47531613E-02 1.63706902E-01 0.00000000E+00
14  2 0.00000000E+00-5.46554996E-02 3.61467906E-01 0.00000000E+00 0.00000000E+00
14  3 2.50935505E-01-1.65957944E+00 0.00000000E+00 0.00000000E+00 0.00000000E+00
14  4 0.00000000E+00 0.00000000E+00 1.53444091E-03-1.01481331E-02 0.00000000E+00
14  5 0.00000000E+00 2.47530797E-02-1.63707245E-01 0.00000000E+00 0.00000000E+00
14  6 5.46553890E-02-3.61468444E-01 0.00000000E+00 0.00000000E+00-2.50935159E-01
14  7 1.65957983E+00 0.00000000E+00 0.00000000E+00 0.00000000E+00 0.00000000E+00
14  8 0.00000000E+00 1.53442308E-03-1.01480233E-02
15  1 0.00000000E+00 0.00000000E+00-1.76879676E-01-2.67449545E-02 0.00000000E+00
15  2 0.00000000E+00-3.82488466E-01-5.78338276E-02 0.00000000E+00 0.00000000E+00
15  3 1.65781894E+00 2.50668949E-01 0.00000000E+00 0.00000000E+00 0.00000000E+00
15  4 0.00000000E+00 0.00000000E+00 9.52920963E-03 1.44085617E-03 0.00000000E+00
15  5 0.00000000E+00 1.76879679E-01 2.67450320E-02 0.00000000E+00 0.00000000E+00
15  6 3.82488576E-01 5.78339387E-02 0.00000000E+00 0.00000000E+00-1.65781815E+00
15  7-2.50669037E-01 0.00000000E+00 0.00000000E+00 0.00000000E+00 0.00000000E+00
15  8 0.00000000E+00 9.52908111E-03 1.44083498E-03
16  1 3.75204287E-02 1.18309152E-02 0.00000000E+00 0.00000000E+00 4.88132517E-02
16  2-6.47714040E-01 0.00000000E+00 0.00000000E+00 1.74644998E-01 2.37993154E-01
16  3 0.00000000E+00 0.00000000E+00-1.16558490E+00 4.82356891E-02 4.95562027E-02
16  4 2.36731804E-02-2.35949964E-04 0.00000000E+00 0.00000000E+00 3.75480466E-02
16  5 1.18422287E-02 0.00000000E+00 0.00000000E+00-4.88612815E-02-6.48193558E-01
16  6 0.00000000E+00 0.00000000E+00-1.74705267E-01 2.41755628E-01 0.00000000E+00
16  7 0.00000000E+00 1.16693962E+00 4.82669640E-02 4.95868437E-02 2.37055519E-02
16  8-2.35845796E-04 0.00000000E+00 0.00000000E+00
17  1 6.73563019E-02-1.34302317E-01 0.00000000E+00 0.00000000E+00 5.38668423E-01
17  2-7.68840782E-01 0.00000000E+00 0.00000000E+00 8.45910680E-01 3.74588552E+00
17  3 0.00000000E+00 0.00000000E+00-1.79200945E+00 9.53774280E-03 4.99407162E-03
17  4 1.80244227E-02 8.11897223E-04 0.00000000E+00 0.00000000E+00-6.73543289E-02
17  5 1.34288672E-01 0.00000000E+00 0.00000000E+00 5.38669960E-01 7.68807390E-01
17  6 0.00000000E+00 0.00000000E+00 8.45889638E-01-3.74585321E+00 0.00000000E+00
17  7 0.00000000E+00-1.79189412E+00-9.54544038E-03-5.00172115E-03-1.80323997E-02
17  8-8.11886105E-04 0.00000000E+00 0.00000000E+00
18  1 6.03402819E-02 5.89528617E-02 0.00000000E+00 0.00000000E+00-8.83163042E-02
18  2-1.29563020E+00 0.00000000E+00 0.00000000E+00-1.52931352E-01 1.49400215E+01
18  3 0.00000000E+00 0.00000000E+00-5.42510502E+00 7.85339352E-02 7.86063128E-02
18  4 6.36899586E-02-1.27987233E-05 0.00000000E+00 0.00000000E+00-6.03430300E-02
18  5-5.90127445E-02 0.00000000E+00 0.00000000E+00-8.83043058E-02 1.29566007E+00
18  6 0.00000000E+00 0.00000000E+00-1.52979350E-01-1.49399727E+01 0.00000000E+00
18  7 0.00000000E+00-5.42485919E+00-7.85794213E-02-7.86519070E-02-6.37303053E-02
18  8 1.29532881E-05 0.00000000E+00 0.00000000E+00
19  1 1.77970304E-02-1.19049990E-01 0.00000000E+00 0.00000000E+00-5.92347336E-01
19  2-9.08499870E-01 0.00000000E+00 0.00000000E+00 2.15342253E+00-5.14913196E-01
19  3 0.00000000E+00 0.00000000E+00-3.36413179E-01-5.15870798E-03-8.15639426E-03
19  4-2.47174306E-01 5.35575416E-04 0.00000000E+00 0.00000000E+00-1.77955429E-02
19  5 1.19057620E-01 0.00000000E+00 0.00000000E+00-5.92364796E-01 9.08468494E-01
19  6 0.00000000E+00 0.00000000E+00 2.15345126E+00 5.14924498E-01 0.00000000E+00
19  7 0.00000000E+00-3.36436588E-01 5.16857882E-03 8.16662162E-03 2.47177037E-01
19  8-5.35707821E-04 0.00000000E+00 0.00000000E+00
20  1 0.00000000E+00 0.00000000E+00 1.04751864E-01-6.92780302E-01 0.00000000E+00
20  2 0.00000000E+00-1.34510628E-01 8.89591688E-01 0.00000000E+00 0.00000000E+00
20  3 5.70484860E-02-3.77292956E-01 0.00000000E+00 0.00000000E+00 0.00000000E+00
20  4 0.00000000E+00 0.00000000E+00 3.56312967E-04-2.35637632E-03 0.00000000E+00
20  5 0.00000000E+00 1.04753499E-01-6.92788958E-01 0.00000000E+00 0.00000000E+00
20  6-1.34513789E-01 8.89608473E-01 0.00000000E+00 0.00000000E+00 5.70505464E-02
20  7-3.77304039E-01 0.00000000E+00 0.00000000E+00 0.00000000E+00 0.00000000E+00
20  8 0.00000000E+00-3.56255662E-04 2.35608652E-03
21  1 0.00000000E+00 0.00000000E+00-6.97478716E-01-1.05462846E-01 0.00000000E+00
21  2 0.00000000E+00 8.85794772E-01 1.33937595E-01 0.00000000E+00 0.00000000E+00
21  3-3.72826892E-01-5.63738816E-02 0.00000000E+00 0.00000000E+00 0.00000000E+00
21  4 0.00000000E+00 0.00000000E+00 6.44384047E-04 9.74645733E-05 0.00000000E+00
21  5 0.00000000E+00-6.97488564E-01-1.05463544E-01 0.00000000E+00 0.00000000E+00
21  6 8.85813447E-01 1.33938893E-01 0.00000000E+00 0.00000000E+00-3.72838967E-01
21  7-5.63747198E-02 0.00000000E+00 0.00000000E+00 0.00000000E+00 0.00000000E+00
21  8 0.00000000E+00-6.44701392E-04-9.74739344E-05
22  1-1.53295042E-02-7.67297331E-01 0.00000000E+00 0.00000000E+00-4.98273850E-01
22  2 1.66634473E+00 0.00000000E+00 0.00000000E+00 7.74603085E-01-6.00496200E-01
22  3 0.00000000E+00 0.00000000E+00-3.74344726E-01-2.49538968E-01-2.55868307E-01
22  4-1.28439965E-01 1.13094369E-03 0.00000000E+00 0.00000000E+00-1.53389147E-02
22  5-7.67427079E-01 0.00000000E+00 0.00000000E+00 4.98250868E-01 1.66678529E+00
22  6 0.00000000E+00 0.00000000E+00-7.74398072E-01-6.00434449E-01 0.00000000E+00
22  7 0.00000000E+00 3.74378397E-01-2.49583423E-01-2.55912229E-01-1.28472173E-01
22  8 1.13085358E-03 0.00000000E+00 0.00000000E+00
23  1 0.00000000E+00 0.00000000E+00 9.87520989E-02-6.53094282E-01 0.00000000E+00
23  2 0.00000000E+00-1.91043068E-01 1.26345999E+00 0.00000000E+00 0.00000000E+00
23  3 1.29219064E-01-8.54589014E-01 0.00000000E+00 0.00000000E+00 0.00000000E+00
23  4 0.00000000E+00 0.00000000E+00-6.33985781E-03 4.19286246E-02 0.00000000E+00
23  5 0.00000000E+00-9.87498997E-02 6.53085307E-01 0.00000000E+00 0.00000000E+00
23  6 1.91040224E-01-1.26344827E+00 0.00000000E+00 0.00000000E+00-1.29217828E-01
23  7 8.54583831E-01 0.00000000E+00 0.00000000E+00 0.00000000E+00 0.00000000E+00
23  8 0.00000000E+00-6.33991254E-03 4.19289825E-02
24  1 0.00000000E+00 0.00000000E+00-6.58117641E-01-9.95110609E-02 0.00000000E+00
24  2 0.00000000E+00 1.25864520E+00 1.90314305E-01 0.00000000E+00 0.00000000E+00
24  3-8.44204860E-01-1.27648647E-01 0.00000000E+00 0.00000000E+00 0.00000000E+00
24  4 0.00000000E+00 0.00000000E+00 4.12910555E-02 6.24344727E-03 0.00000000E+00
24  5 0.00000000E+00 6.58107525E-01 9.95098759E-02 0.00000000E+00 0.00000000E+00
24  6-1.25863205E+00-1.90312755E-01 0.00000000E+00 0.00000000E+00 8.44199058E-01
24  7 1.27647953E-01 0.00000000E+00 0.00000000E+00 0.00000000E+00 0.00000000E+00
24  8 0.00000000E+00 4.12913894E-02 6.24349218E-03
25  1-5.03423702E-02-9.32961700E-01 0.00000000E+00 0.00000000E+00 3.44336496E-01
25  2 1.83911645E+00 0.00000000E+00 0.00000000E+00-5.58308763E-01-4.92109505E-01
25  3 0.00000000E+00 0.00000000E+00 5.63792665E-01-1.63344460E-01-1.45073342E-01
25  4-5.10361577E-01-3.26472755E-03 0.00000000E+00 0.00000000E+00-5.03520439E-02
25  5-9.33102711E-01 0.00000000E+00 0.00000000E+00-3.44335149E-01 1.83956478E+00
25  6 0.00000000E+00 0.00000000E+00 5.58437139E-01-4.92514824E-01 0.00000000E+00
25  7 0.00000000E+00-5.63916160E-01-1.63388427E-01-1.45116643E-01-5.10403420E-01
25  8-3.26485939E-03 0.00000000E+00 0.00000000E+00
26  1 0.00000000E+00 0.00000000E+00-1.37201984E-03 9.07394881E-03 0.00000000E+00
26  2 0.00000000E+00-2.64107245E-02 1.74667148E-01 0.00000000E+00 0.00000000E+00
26  3 1.24978809E-02-8.26546909E-02 0.00000000E+00 0.00000000E+00 0.00000000E+00
26  4 0.00000000E+00 0.00000000E+00-9.35547077E-02 6.18723832E-01 0.00000000E+00
26  5 0.00000000E+00-1.37208216E-03 9.07430867E-03 0.00000000E+00 0.00000000E+00
26  6-2.64106411E-02 1.74666651E-01 0.00000000E+00 0.00000000E+00 1.24977692E-02
26  7-8.26539134E-02 0.00000000E+00 0.00000000E+00 0.00000000E+00 0.00000000E+00
26  8 0.00000000E+00 9.35546601E-02-6.18723482E-01
27  1 0.00000000E+00 0.00000000E+00 1.28134794E-02 1.93748527E-03 0.00000000E+00
27  2 0.00000000E+00 1.71099356E-01 2.58712246E-02 0.00000000E+00 0.00000000E+00
27  3-8.09344438E-02-1.22377687E-02 0.00000000E+00 0.00000000E+00 0.00000000E+00
27  4 0.00000000E+00 0.00000000E+00 6.18693846E-01 9.35501786E-02 0.00000000E+00
27  5 0.00000000E+00 1.28138500E-02 1.93753766E-03 0.00000000E+00 0.00000000E+00
27  6 1.71098890E-01 2.58711564E-02 0.00000000E+00 0.00000000E+00-8.09336405E-02
27  7-1.22376366E-02 0.00000000E+00 0.00000000E+00 0.00000000E+00 0.00000000E+00
27  8 0.00000000E+00-6.18693383E-01-9.35501038E-02
28  1 7.64447059E-02 1.44982398E+00 0.00000000E+00 0.00000000E+00-8.25528629E-02
28  2-4.53666353E+00 0.00000000E+00 0.00000000E+00 1.36756614E+00 8.08494219E+00
28  3 0.00000000E+00 0.00000000E+00-2.81741146E+00 2.92992470E-01 2.69394534E-01
28  4 4.37156330E-01 4.21706229E-03 0.00000000E+00 0.00000000E+00-7.64493289E-02
28  5-1.44968155E+00 0.00000000E+00 0.00000000E+00-8.25716373E-02 4.53643600E+00
28  6 0.00000000E+00 0.00000000E+00 1.36759259E+00-8.08485220E+00 0.00000000E+00
28  7 0.00000000E+00-2.81739014E+00-2.92994421E-01-2.69411696E-01-4.37120409E-01
28  8-4.21350090E-03 0.00000000E+00 0.00000000E+00
29  1 2.94223564E-06 1.44014183E-05 0.00000000E+00 0.00000000E+00-1.61393151E-05
29  2-3.52531881E-05 0.00000000E+00 0.00000000E+00 1.75244913E-05 1.01124244E-06
29  3 0.00000000E+00 0.00000000E+00-8.51736152E-06-1.74779724E-01 1.74804034E-01
29  4-2.17209258E-09 6.50179762E-01 0.00000000E+00 0.00000000E+00 3.03302725E-06
29  5 1.61504299E-05 0.00000000E+00 0.00000000E+00 1.61755513E-05-4.07566828E-05
29  6 0.00000000E+00 0.00000000E+00-1.89950950E-05 1.37037162E-05 0.00000000E+00
29  7 0.00000000E+00 1.30117589E-05-1.74779170E-01 1.74804159E-01 4.61921837E-07
29  8 6.50179017E-01 0.00000000E+00 0.00000000E+00
30  1 3.49170173E-03 1.78649512E-02 0.00000000E+00 0.00000000E+00-1.88906380E-02
30  2-4.44392810E-02 0.00000000E+00 0.00000000E+00 2.13533448E-02 8.65478919E-03
30  3 0.00000000E+00 0.00000000E+00-1.25996254E-02-5.48433490E-01 5.77253165E-01
30  4 2.63544660E-04-2.01750724E-01 0.00000000E+00 0.00000000E+00 3.49076660E-03
30  5 1.78457343E-02 0.00000000E+00 0.00000000E+00 1.88894697E-02-4.43798388E-02
30  6 0.00000000E+00 0.00000000E+00-2.13359157E-02 8.53587332E-03 0.00000000E+00
30  7 0.00000000E+00 1.25577926E-02-5.48436301E-01 5.77249441E-01 2.57658848E-04
30  8-2.01750569E-01 0.00000000E+00 0.00000000E+00
31  1 9.83452336E-07 5.54336642E-06 0.00000000E+00 0.00000000E+00 6.51935557E-08
31  2-2.66000591E-05 0.00000000E+00 0.00000000E+00 1.04940715E-05 3.78855228E-05
31  3 0.00000000E+00 0.00000000E+00-1.36806482E-05 1.88535922E-01-1.88529921E-01
31  4 2.39113883E-07-7.03838415E-01 0.00000000E+00 0.00000000E+00-9.82314947E-07
31  5-5.52728027E-06 0.00000000E+00 0.00000000E+00 8.05815727E-08 2.65738888E-05
31  6 0.00000000E+00 0.00000000E+00 1.04847932E-05-3.78795830E-05 0.00000000E+00
31  7 0.00000000E+00-1.36726310E-05-1.88536088E-01 1.88530138E-01-2.71320377E-07
31  8 7.03839106E-01 0.00000000E+00 0.00000000E+00
32  1-5.75488623E-03-3.15619637E-02 0.00000000E+00 0.00000000E+00-3.42997046E-04
32  2 1.53383175E-01 0.00000000E+00 0.00000000E+00-6.11765314E-02-2.09716418E-01
32  3 0.00000000E+00 0.00000000E+00 7.56650277E-02 5.91916306E-01-6.26811276E-01
32  4-1.43905948E-03 2.17635362E-01 0.00000000E+00 0.00000000E+00 5.75514019E-03
32  5 3.15602383E-02 0.00000000E+00 0.00000000E+00-3.42196772E-04-1.53381461E-01
32  6 0.00000000E+00 0.00000000E+00-6.11775033E-02 2.09715250E-01 0.00000000E+00
32  7 0.00000000E+00 7.56649215E-02-5.91915729E-01 6.26812963E-01 1.43855296E-03
32  8-2.17635561E-01 0.00000000E+00 0.00000000E+00
33  1 1.49604305E-03-5.07873532E-01 0.00000000E+00 0.00000000E+00 4.63199162E-01
33  2 4.69698056E-01 0.00000000E+00 0.00000000E+00-4.22491464E-01-4.83752139E-02
33  3 0.00000000E+00 0.00000000E+00 1.31159187E-01-4.20044547E-01-3.96878859E-01
33  4 5.46374740E-01-4.13933981E-03 0.00000000E+00 0.00000000E+00 1.49602186E-03
33  5-5.07852694E-01 0.00000000E+00 0.00000000E+00-4.63195446E-01 4.69646375E-01
33  6 0.00000000E+00 0.00000000E+00 4.22481506E-01-4.81626161E-02 0.00000000E+00
33  7 0.00000000E+00-1.31081733E-01-4.20048112E-01-3.96881307E-01 5.46385578E-01
33  8-4.13949908E-03 0.00000000E+00 0.00000000E+00
34  1 0.00000000E+00 0.00000000E+00-1.18731576E-02 7.85231683E-02 0.00000000E+00
34  2 0.00000000E+00 7.44261112E-02-4.92217695E-01 0.00000000E+00 0.00000000E+00
34  3-2.25257052E-02 1.48973920E-01 0.00000000E+00 0.00000000E+00 0.00000000E+00
34  4 0.00000000E+00 0.00000000E+00-1.37616274E-01 9.10126464E-01 0.00000000E+00
34  5 0.00000000E+00 1.18731185E-02-7.85229841E-02 0.00000000E+00 0.00000000E+00
34  6-7.44260499E-02 4.92217344E-01 0.00000000E+00 0.00000000E+00 2.25256756E-02
34  7-1.48973722E-01 0.00000000E+00 0.00000000E+00 0.00000000E+00 0.00000000E+00
34  8 0.00000000E+00-1.37616305E-01 9.10126689E-01
35  1 0.00000000E+00 0.00000000E+00 7.82008528E-02 1.18244035E-02 0.00000000E+00
35  2 0.00000000E+00-4.91226800E-01-7.42762648E-02 0.00000000E+00 0.00000000E+00
35  3 1.48517500E-01 2.24566833E-02 0.00000000E+00 0.00000000E+00 0.00000000E+00
35  4 0.00000000E+00 0.00000000E+00 9.10159178E-01 1.37621217E-01 0.00000000E+00
35  5 0.00000000E+00-7.82006480E-02-1.18243797E-02 0.00000000E+00 0.00000000E+00
35  6 4.91226394E-01 7.42762061E-02 0.00000000E+00 0.00000000E+00-1.48517270E-01
35  7-2.24566441E-02 0.00000000E+00 0.00000000E+00 0.00000000E+00 0.00000000E+00
35  8 0.00000000E+00 9.10159480E-01 1.37621267E-01
36  1 7.81819946E-02 7.11485371E-01 0.00000000E+00 0.00000000E+00 2.59990750E-01
36  2-3.66101286E+00 0.00000000E+00 0.00000000E+00 2.46213800E+00 2.90364937E+00
36  3 0.00000000E+00 0.00000000E+00-1.25277501E+00 6.69861660E-01 6.58442523E-01
36  4-1.31578729E+00 2.04043771E-03 0.00000000E+00 0.00000000E+00-7.81913696E-02
36  5-7.11464376E-01 0.00000000E+00 0.00000000E+00 2.59991672E-01 3.66105182E+00
36  6 0.00000000E+00 0.00000000E+00 2.46214041E+00-2.90365038E+00 0.00000000E+00
36  7 0.00000000E+00-1.25277603E+00-6.69890413E-01-6.58471071E-01 1.31576172E+00
36  8-2.04044697E-03 0.00000000E+00 0.00000000E+00
37  1-3.54437117E-01 6.47892640E-02 0.00000000E+00 0.00000000E+00 1.79770775E-02
37  2 2.73013587E+00 0.00000000E+00 0.00000000E+00-7.63495703E-02-5.15032175E-01
37  3 0.00000000E+00 0.00000000E+00 1.27548364E-01-1.22113814E+00-1.21664112E+00
37  4-9.93855666E-01-8.03541824E-04 0.00000000E+00 0.00000000E+00-3.54484054E-01
37  5 6.48138614E-02 0.00000000E+00 0.00000000E+00-1.80014637E-02 2.73052815E+00
37  6 0.00000000E+00 0.00000000E+00 7.63587376E-02-5.14897606E-01 0.00000000E+00
37  7 0.00000000E+00-1.27457464E-01-1.22129205E+00-1.21679423E+00-9.94054929E-01
37  8-8.03682728E-04 0.00000000E+00 0.00000000E+00
38  1 4.07069478E-01 3.36081079E-01 0.00000000E+00 0.00000000E+00-1.25585851E-01
38  2-5.18001739E+00 0.00000000E+00 0.00000000E+00 8.72654595E-01 5.87837150E+00
38  3 0.00000000E+00 0.00000000E+00-1.89713104E+00 1.39612172E+00 1.39107930E+00
38  4 1.34678784E+00 9.00974515E-04 0.00000000E+00 0.00000000E+00-4.07021626E-01
38  5-3.36068840E-01 0.00000000E+00 0.00000000E+00-1.25584043E-01 5.17960804E+00
38  6 0.00000000E+00 0.00000000E+00 8.72647494E-01-5.87828581E+00 0.00000000E+00
38  7 0.00000000E+00-1.89710803E+00-1.39595357E+00-1.39091162E+00-1.34665104E+00
38  8-9.00907311E-04 0.00000000E+00 0.00000000E+00
 1  1 7.06132911E-01 1.81868579E-02 0.00000000E+00 0.00000000E+00-9.35052069E-04
 1  2 7.60115864E-03 0.00000000E+00 0.00000000E+00 3.99740947E-04-1.27409921E-03
 1  3 0.00000000E+00 0.00000000E+00-1.81691300E-06-5.48846022E-03-5.60449809E-03
 1  4-5.47139710E-03 2.07303406E-05 0.00000000E+00 0.00000000E+00 6.98062400E-01
 1  5 1.79861506E-02 0.00000000E+00 0.00000000E+00 9.29836950E-04 7.48544892E-03
 1  6 0.00000000E+00 0.00000000E+00-4.03545532E-04-1.18547654E-03 0.00000000E+00
 1  7 0.00000000E+00 2.59984412E-05-5.42298024E-03-5.53735755E-03-5.40584628E-03
 1  8 2.04322267E-05 0.00000000E+00 0.00000000E+00
 2  1-6.97997015E-01-1.73074110E-02 0.00000000E+00 0.00000000E+00 4.45290006E-04
 2  2-1.03180654E-02 0.00000000E+00 0.00000000E+00 3.97382891E-04 8.61838781E-03
 2  3 0.00000000E+00 0.00000000E+00-2.43979368E-03 5.71423648E-03 5.85808922E-03
 2  4 5.70526809E-03-2.56998731E-05 0.00000000E+00 0.00000000E+00 7.06068174E-01
 2  5 1.75154847E-02 0.00000000E+00 0.00000000E+00 4.56067786E-04 1.04040468E-02
 2  6 0.00000000E+00 0.00000000E+00 3.92717207E-04-8.63234877E-03 0.00000000E+00
 2  7 0.00000000E+00-2.43958967E-03-5.77668283E-03-5.92186066E-03-5.76762673E-03
 2  8 2.59378328E-05 0.00000000E+00 0.00000000E+00
 3  1-1.52170637E-01 3.39168538E-01 0.00000000E+00 0.00000000E+00-1.45760468E-01
 3  2 2.82006936E-01 0.00000000E+00 0.00000000E+00-4.88030735E-02 1.00420252E-03
 3  3 0.00000000E+00 0.00000000E+00 1.21298041E-02-8.80031064E-03-9.94757045E-03
 3  4 2.84739211E-02 2.04987705E-04 0.00000000E+00 0.00000000E+00-1.52170030E-01
 3  5 3.39171735E-01 0.00000000E+00 0.00000000E+00 1.45761035E-01 2.81987652E-01
 3  6 0.00000000E+00 0.00000000E+00 4.88026695E-02 1.18346811E-03 0.00000000E+00
 3  7 0.00000000E+00-1.20610508E-02-8.79875914E-03-9.94604543E-03 2.84761254E-02
 3  8 2.04982307E-04 0.00000000E+00 0.00000000E+00
 4  1 1.66213251E-01-3.72543710E-01 0.00000000E+00 0.00000000E+00-1.04278646E-01
 4  2-4.86896466E-01 0.00000000E+00 0.00000000E+00-2.37758761E-02 1.18332885E-01
 4  3 0.00000000E+00 0.00000000E+00-6.72799868E-02 3.09408713E-03 6.89259299E-03
 4  4 1.01450153E-02-6.78725358E-04 0.00000000E+00 0.00000000E+00-1.66213709E-01
 4  5 3.72541833E-01 0.00000000E+00 0.00000000E+00-1.04278373E-01 4.86904600E-01
 4  6 0.00000000E+00 0.00000000E+00-2.37759286E-02-1.18336450E-01 0.00000000E+00
 4  7 0.00000000E+00-6.72810997E-02-3.09576992E-03-6.89430177E-03-1.01466189E-02
 4  8 6.78753701E-04 0.00000000E+00 0.00000000E+00
 5  1 4.86023901E-02-1.01877915E-01 0.00000000E+00 0.00000000E+00-4.49772270E-01
 5  2-1.84402272E-01 0.00000000E+00 0.00000000E+00-2.34600789E-01-9.22205492E-02
 5  3 0.00000000E+00 0.00000000E+00-5.21209073E-02-7.27499466E-03-5.05255719E-03
 5  4 2.62343648E-02-3.97121491E-04 0.00000000E+00 0.00000000E+00 4.86036053E-02
 5  5-1.01872688E-01 0.00000000E+00 0.00000000E+00 4.49773942E-01-1.84433305E-01
 5  6 0.00000000E+00 0.00000000E+00 2.34594731E-01-9.20534408E-02 0.00000000E+00
 5  7 0.00000000E+00 5.21846945E-02-7.27134369E-03-5.04890135E-03 2.62371137E-02
 5  8-3.97108330E-04 0.00000000E+00 0.00000000E+00
 6  1 0.00000000E+00 0.00000000E+00 4.32261902E-01 6.53596014E-02 0.00000000E+00
 6  2 0.00000000E+00 2.51780263E-01 3.80701050E-02 0.00000000E+00 0.00000000E+00
 6  3 7.03514466E-02 1.06373274E-02 0.00000000E+00 0.00000000E+00 0.00000000E+00
 6  4 0.00000000E+00 0.00000000E+00-2.40892583E-02-3.64237739E-03 0.00000000E+00
 6  5 0.00000000E+00 4.32260937E-01 6.53595138E-02 0.00000000E+00 0.00000000E+00
 6  6 2.51779599E-01 3.80700379E-02 0.00000000E+00 0.00000000E+00 7.03527071E-02
 6  7 1.06375470E-02 0.00000000E+00 0.00000000E+00 0.00000000E+00 0.00000000E+00
 6  8 0.00000000E+00 2.40892433E-02 3.64235560E-03
 7  1 0.00000000E+00 0.00000000E+00-6.25690831E-02 4.13806434E-01 0.00000000E+00
 7  2 0.00000000E+00-3.89047109E-02 2.57299839E-01 0.00000000E+00 0.00000000E+00
 7  3-1.25519784E-02 8.30132180E-02 0.00000000E+00 0.00000000E+00 0.00000000E+00
 7  4 0.00000000E+00 0.00000000E+00 4.29090960E-03-2.83782711E-02 0.00000000E+00
 7  5 0.00000000E+00-6.25687269E-02 4.13804844E-01 0.00000000E+00 0.00000000E+00
 7  6-3.89044669E-02 2.57298732E-01 0.00000000E+00 0.00000000E+00-1.25521224E-02
 7  7 8.30144163E-02 0.00000000E+00 0.00000000E+00 0.00000000E+00 0.00000000E+00
 7  8 0.00000000E+00-4.29091959E-03 2.83782547E-02
 8  1 0.00000000E+00 0.00000000E+00-4.86019905E-01-7.34891499E-02 0.00000000E+00
 8  2 0.00000000E+00-3.25247124E-01-4.91793196E-02 0.00000000E+00 0.00000000E+00
 8  3-2.75947289E-01-4.17246916E-02 0.00000000E+00 0.00000000E+00 0.00000000E+00