 $SCF DIRSCF=.TRUE. $END
 $TRANS DIRTRF=.TRUE. $END
 $CONTRL SCFTYP=MCSCF runtyp=energy ispher=1 pdftyp=tpbe $END
 $SYSTEM mwords=100 memddi=100 $END
 $BASIS  GBASIS=CCT $END
 $GUESS  GUESS=MOREAD NORB=30  $END
 $DET   NCORE=0 NACT=5 NELS=4 NSTATE=5 WSTATE(1)=1,1  $end 
 $mcscf  cistep=aldet canonc=.true. fullnr=.true. maxit=50  $end
---- EXPERIMENTAL GEOM, R(OH)=0.75A 
 $DATA
H2...cc-pVTZ BASIS...FORS-MCSCF...EXPERIMENTAL GEOMETRY
C1
Beryllium 4.0   0.0  0.0   0.0
 $END
---$CIDET CITYP=ALDET SAFLG=.true. WSTATE(1)=1.0,1.0 $END

-------dskdpq'jd
 $VEC   
 1  1 9.91860478E-01-9.59328513E-07 1.81936147E-02 1.90363900E-03-0.00000000E+00
 1  2-0.00000000E+00-0.00000000E+00-0.00000000E+00-0.00000000E+00-0.00000000E+00
 1  3-0.00000000E+00-0.00000000E+00-0.00000000E+00-0.00000000E+00-0.00000000E+00
 1  4-0.00000000E+00-0.00000000E+00-0.00000000E+00-0.00000000E+00-0.00000000E+00
 1  5-0.00000000E+00-0.00000000E+00-0.00000000E+00-0.00000000E+00-0.00000000E+00
 1  6-0.00000000E+00-0.00000000E+00-0.00000000E+00-0.00000000E+00-0.00000000E+00
 1  7-0.00000000E+00-0.00000000E+00-0.00000000E+00-0.00000000E+00-0.00000000E+00
 2  1 4.78939681E-06 5.62664070E-01 2.28022185E-01 3.17868773E-01-0.00000000E+00
 2  2-0.00000000E+00-0.00000000E+00-0.00000000E+00-0.00000000E+00-0.00000000E+00
 2  3-0.00000000E+00-0.00000000E+00-0.00000000E+00-0.00000000E+00-0.00000000E+00
 2  4-0.00000000E+00-0.00000000E+00-0.00000000E+00-0.00000000E+00-0.00000000E+00
 2  5-0.00000000E+00-0.00000000E+00-0.00000000E+00-0.00000000E+00-0.00000000E+00
 2  6-0.00000000E+00-0.00000000E+00-0.00000000E+00-0.00000000E+00-0.00000000E+00
 2  7-0.00000000E+00-0.00000000E+00-0.00000000E+00-0.00000000E+00-0.00000000E+00
 3  1 0.00000000E+00 0.00000000E+00 0.00000000E+00 0.00000000E+00-1.05094870E-01
 3  2 1.36131070E-01 1.03857952E-02-7.92836462E-02 1.02697378E-01 7.83505139E-03
 3  3-5.08674140E-01 6.58893767E-01 5.02687278E-02 0.00000000E+00 0.00000000E+00
 3  4 0.00000000E+00 0.00000000E+00 0.00000000E+00 0.00000000E+00 0.00000000E+00
 3  5 0.00000000E+00 0.00000000E+00 0.00000000E+00 0.00000000E+00 0.00000000E+00
 3  6 0.00000000E+00 0.00000000E+00 0.00000000E+00 0.00000000E+00 0.00000000E+00
 3  7 0.00000000E+00 0.00000000E+00 0.00000000E+00 0.00000000E+00 0.00000000E+00
 4  1-0.00000000E+00-0.00000000E+00-0.00000000E+00-0.00000000E+00 7.46693266E-02
 4  2 4.63394989E-02 1.48194491E-01 5.63305940E-02 3.49585515E-02 1.11798031E-01
 4  3 3.61410175E-01 2.24289774E-01 7.17282444E-01-0.00000000E+00-0.00000000E+00
 4  4-0.00000000E+00-0.00000000E+00-0.00000000E+00-0.00000000E+00-0.00000000E+00
 4  5-0.00000000E+00-0.00000000E+00-0.00000000E+00-0.00000000E+00-0.00000000E+00
 4  6-0.00000000E+00-0.00000000E+00-0.00000000E+00-0.00000000E+00-0.00000000E+00
 4  7-0.00000000E+00-0.00000000E+00-0.00000000E+00-0.00000000E+00-0.00000000E+00
 5  1-0.00000000E+00-0.00000000E+00-0.00000000E+00-0.00000000E+00 1.14297964E-01
 5  2 9.48970356E-02-8.72639258E-02 8.62264669E-02 7.15903923E-02-6.58319687E-02
 5  3 5.53218426E-01 4.59315168E-01-4.22369829E-01-0.00000000E+00-0.00000000E+00
 5  4-0.00000000E+00-0.00000000E+00-0.00000000E+00-0.00000000E+00-0.00000000E+00
 5  5-0.00000000E+00-0.00000000E+00-0.00000000E+00-0.00000000E+00-0.00000000E+00
 5  6-0.00000000E+00-0.00000000E+00-0.00000000E+00-0.00000000E+00-0.00000000E+00
 5  7-0.00000000E+00-0.00000000E+00-0.00000000E+00-0.00000000E+00-0.00000000E+00
 6  1-4.21143784E-01-1.36012314E+00-4.08224004E-01 1.78876635E+00 0.00000000E+00
 6  2 0.00000000E+00 0.00000000E+00 0.00000000E+00 0.00000000E+00 0.00000000E+00
 6  3 0.00000000E+00 0.00000000E+00 0.00000000E+00 0.00000000E+00 0.00000000E+00
 6  4 0.00000000E+00 0.00000000E+00 0.00000000E+00 0.00000000E+00 0.00000000E+00
 6  5 0.00000000E+00 0.00000000E+00 0.00000000E+00 0.00000000E+00 0.00000000E+00
 6  6 0.00000000E+00 0.00000000E+00 0.00000000E+00 0.00000000E+00 0.00000000E+00
 6  7 0.00000000E+00 0.00000000E+00 0.00000000E+00 0.00000000E+00 0.00000000E+00
 7  1-0.00000000E+00-0.00000000E+00-0.00000000E+00-0.00000000E+00 1.92159751E-01
 7  2 4.20826460E-02 1.50645926E-02 1.16862489E+00 2.55926786E-01 9.16157408E-02
 7  3-1.09941387E+00-2.40769694E-01-8.61898601E-02-0.00000000E+00-0.00000000E+00
 7  4-0.00000000E+00-0.00000000E+00-0.00000000E+00-0.00000000E+00-0.00000000E+00
 7  5-0.00000000E+00-0.00000000E+00-0.00000000E+00-0.00000000E+00-0.00000000E+00
 7  6-0.00000000E+00-0.00000000E+00-0.00000000E+00-0.00000000E+00-0.00000000E+00
 7  7-0.00000000E+00-0.00000000E+00-0.00000000E+00-0.00000000E+00-0.00000000E+00
 8  1-0.00000000E+00-0.00000000E+00-0.00000000E+00-0.00000000E+00-1.30892869E-02
 8  2-1.05983545E-02 1.96569597E-01-7.96028635E-02-6.44541887E-02 1.19544349E+00
 8  3 7.48884374E-02 6.06369327E-02-1.12464415E+00-0.00000000E+00-0.00000000E+00
 8  4-0.00000000E+00-0.00000000E+00-0.00000000E+00-0.00000000E+00-0.00000000E+00
 8  5-0.00000000E+00-0.00000000E+00-0.00000000E+00-0.00000000E+00-0.00000000E+00
 8  6-0.00000000E+00-0.00000000E+00-0.00000000E+00-0.00000000E+00-0.00000000E+00
 8  7-0.00000000E+00-0.00000000E+00-0.00000000E+00-0.00000000E+00-0.00000000E+00
 9  1 0.00000000E+00 0.00000000E+00 0.00000000E+00 0.00000000E+00-4.27382921E-02
 9  2 1.92457753E-01 7.53077662E-03-2.59914117E-01 1.17043720E+00 4.57986283E-02
 9  3 2.44520878E-01-1.10111884E+00-4.30862353E-02 0.00000000E+00 0.00000000E+00
 9  4 0.00000000E+00 0.00000000E+00 0.00000000E+00 0.00000000E+00 0.00000000E+00
 9  5 0.00000000E+00 0.00000000E+00 0.00000000E+00 0.00000000E+00 0.00000000E+00
 9  6 0.00000000E+00 0.00000000E+00 0.00000000E+00 0.00000000E+00 0.00000000E+00
 9  7 0.00000000E+00 0.00000000E+00 0.00000000E+00 0.00000000E+00 0.00000000E+00
10  1 0.00000000E+00 0.00000000E+00 0.00000000E+00 0.00000000E+00 0.00000000E+00
10  2 0.00000000E+00 0.00000000E+00 0.00000000E+00 0.00000000E+00 0.00000000E+00
10  3 0.00000000E+00 0.00000000E+00 0.00000000E+00 1.03380022E-04-1.33139497E-03
10  4 1.22801494E-03-1.22467990E-01-1.00728614E-01-2.53789298E-01-4.23514571E-04
10  5 5.45429530E-03-5.03078073E-03 5.01711813E-01 4.12652607E-01 1.03969281E+00
10  6 0.00000000E+00 0.00000000E+00 0.00000000E+00 0.00000000E+00 0.00000000E+00
10  7 0.00000000E+00 0.00000000E+00 0.00000000E+00 0.00000000E+00 0.00000000E+00
11  1 0.00000000E+00 0.00000000E+00 0.00000000E+00 0.00000000E+00 0.00000000E+00
11  2 0.00000000E+00 0.00000000E+00 0.00000000E+00 0.00000000E+00 0.00000000E+00
11  3 0.00000000E+00 0.00000000E+00 0.00000000E+00-5.54433195E-03 7.14443929E-03
11  4-1.60010734E-03 8.99255579E-02-2.77427778E-01 6.66847648E-02 2.27133378E-02
11  5-2.92684610E-02 6.55512313E-03-3.68395976E-01 1.13653203E+00-2.73185950E-01
11  6 0.00000000E+00 0.00000000E+00 0.00000000E+00 0.00000000E+00 0.00000000E+00
11  7 0.00000000E+00 0.00000000E+00 0.00000000E+00 0.00000000E+00 0.00000000E+00
12  1 0.00000000E+00 0.00000000E+00 0.00000000E+00 0.00000000E+00 0.00000000E+00
12  2 0.00000000E+00 0.00000000E+00 0.00000000E+00 0.00000000E+00 0.00000000E+00
12  3 0.00000000E+00 0.00000000E+00 0.00000000E+00 3.94315754E-02-2.89245198E-02
12  4-1.05070557E-02-2.55091099E-01-4.93515262E-02 1.42761709E-01-1.61538433E-01
12  5 1.18494418E-01 4.30440145E-02 1.04502587E+00 2.02177268E-01-5.84848628E-01
12  6 0.00000000E+00 0.00000000E+00 0.00000000E+00 0.00000000E+00 0.00000000E+00
12  7 0.00000000E+00 0.00000000E+00 0.00000000E+00 0.00000000E+00 0.00000000E+00
13  1-0.00000000E+00-0.00000000E+00-0.00000000E+00-0.00000000E+00-0.00000000E+00
13  2-0.00000000E+00-0.00000000E+00-0.00000000E+00-0.00000000E+00-0.00000000E+00
13  3-0.00000000E+00-0.00000000E+00-0.00000000E+00 3.67976030E-02-2.75194758E-01
13  4 2.38397155E-01 1.57079557E-02-2.23055593E-03-4.95321416E-03-1.50747898E-01
13  5 1.12738407E+00-9.76636171E-01-6.43504228E-02 9.13786745E-03 2.02917191E-02
13  6-0.00000000E+00-0.00000000E+00-0.00000000E+00-0.00000000E+00-0.00000000E+00
13  7-0.00000000E+00-0.00000000E+00-0.00000000E+00-0.00000000E+00-0.00000000E+00
14  1-0.00000000E+00-0.00000000E+00-0.00000000E+00-0.00000000E+00-0.00000000E+00
14  2-0.00000000E+00-0.00000000E+00-0.00000000E+00-0.00000000E+00-0.00000000E+00
14  3-0.00000000E+00-0.00000000E+00-0.00000000E+00-2.94306305E-01 1.13728914E-01
14  4 1.80577391E-01-3.39505695E-02-1.70009669E-03 1.71627090E-02 1.20567791E+00
14  5-4.65910640E-01-7.39767266E-01 1.39084521E-01 6.96474722E-03-7.03100775E-02
14  6-0.00000000E+00-0.00000000E+00-0.00000000E+00-0.00000000E+00-0.00000000E+00
14  7-0.00000000E+00-0.00000000E+00-0.00000000E+00-0.00000000E+00-0.00000000E+00
15  1 0.00000000E+00 0.00000000E+00 0.00000000E+00 0.00000000E+00 5.59011663E-01
15  2 2.98940102E-01-1.21288197E+00-6.13883984E-01-3.28283922E-01 1.33193789E+00
15  3 2.57762014E-01 1.37842210E-01-5.59263642E-01 0.00000000E+00 0.00000000E+00
15  4 0.00000000E+00 0.00000000E+00 0.00000000E+00 0.00000000E+00 0.00000000E+00
15  5 0.00000000E+00 0.00000000E+00 0.00000000E+00 0.00000000E+00 0.00000000E+00
15  6 0.00000000E+00 0.00000000E+00 0.00000000E+00 0.00000000E+00 0.00000000E+00
15  7 0.00000000E+00 0.00000000E+00 0.00000000E+00 0.00000000E+00 0.00000000E+00
16  1-0.00000000E+00-0.00000000E+00-0.00000000E+00-0.00000000E+00-4.98161606E-01
16  2-1.16520610E+00-5.16789757E-01 5.47060914E-01 1.27958218E+00 5.67517597E-01
16  3-2.29703864E-01-5.37280151E-01-2.38293362E-01-0.00000000E+00-0.00000000E+00
16  4-0.00000000E+00-0.00000000E+00-0.00000000E+00-0.00000000E+00-0.00000000E+00
16  5-0.00000000E+00-0.00000000E+00-0.00000000E+00-0.00000000E+00-0.00000000E+00
16  6-0.00000000E+00-0.00000000E+00-0.00000000E+00-0.00000000E+00-0.00000000E+00
16  7-0.00000000E+00-0.00000000E+00-0.00000000E+00-0.00000000E+00-0.00000000E+00
17  1 0.00000000E+00 0.00000000E+00 0.00000000E+00 0.00000000E+00-1.14554915E+00
17  2 6.52588273E-01-3.67134267E-01 1.25799572E+00-7.16646031E-01 4.03171994E-01
17  3-5.28216273E-01 3.00910480E-01-1.69286751E-01 0.00000000E+00 0.00000000E+00
17  4 0.00000000E+00 0.00000000E+00 0.00000000E+00 0.00000000E+00 0.00000000E+00
17  5 0.00000000E+00 0.00000000E+00 0.00000000E+00 0.00000000E+00 0.00000000E+00
17  6 0.00000000E+00 0.00000000E+00 0.00000000E+00 0.00000000E+00 0.00000000E+00
17  7 0.00000000E+00 0.00000000E+00 0.00000000E+00 0.00000000E+00 0.00000000E+00
18  1 0.00000000E+00 0.00000000E+00 0.00000000E+00 0.00000000E+00 0.00000000E+00
18  2 0.00000000E+00 0.00000000E+00 0.00000000E+00 0.00000000E+00 0.00000000E+00
18  3 0.00000000E+00 0.00000000E+00 0.00000000E+00 2.28152685E-03 2.22558231E-02
18  4-2.45373500E-02 7.44774043E-02 1.64872171E+00 2.46136095E-01-1.60115159E-03
18  5-1.56189030E-02 1.72200546E-02-5.22674605E-02-1.15705559E+00-1.72735728E-01
18  6 0.00000000E+00 0.00000000E+00 0.00000000E+00 0.00000000E+00 0.00000000E+00
18  7 0.00000000E+00 0.00000000E+00 0.00000000E+00 0.00000000E+00 0.00000000E+00
19  1-0.00000000E+00-0.00000000E+00-0.00000000E+00-0.00000000E+00-0.00000000E+00
19  2-0.00000000E+00-0.00000000E+00-0.00000000E+00-0.00000000E+00-0.00000000E+00
19  3-0.00000000E+00-0.00000000E+00-0.00000000E+00 5.77511770E-02-4.13246640E-02
19  4-1.64265130E-02 1.66556019E+00-6.68403711E-02-5.52086233E-02-4.05291698E-02
19  5 2.90012154E-02 1.15279544E-02-1.16887265E+00 4.69078708E-02 3.87448323E-02
19  6-0.00000000E+00-0.00000000E+00-0.00000000E+00-0.00000000E+00-0.00000000E+00
19  7-0.00000000E+00-0.00000000E+00-0.00000000E+00-0.00000000E+00-0.00000000E+00
20  1 0.00000000E+00 0.00000000E+00 0.00000000E+00 0.00000000E+00 0.00000000E+00
20  2 0.00000000E+00 0.00000000E+00 0.00000000E+00 0.00000000E+00 0.00000000E+00
20  3 0.00000000E+00 0.00000000E+00 0.00000000E+00-1.24431241E-01 1.74868089E-01
20  4-5.04368486E-02 4.97932638E-02-2.48982232E-01 1.63959531E+00 8.73245386E-02
20  5-1.22720590E-01 3.53960509E-02-3.49443898E-02 1.74733117E-01-1.15065077E+00
20  6 0.00000000E+00 0.00000000E+00 0.00000000E+00 0.00000000E+00 0.00000000E+00
20  7 0.00000000E+00 0.00000000E+00 0.00000000E+00 0.00000000E+00 0.00000000E+00
21  1 0.00000000E+00 0.00000000E+00 0.00000000E+00 0.00000000E+00 0.00000000E+00
21  2 0.00000000E+00 0.00000000E+00 0.00000000E+00 0.00000000E+00 0.00000000E+00
21  3 0.00000000E+00 0.00000000E+00 0.00000000E+00-1.40131838E+00 1.46921179E+00
21  4-6.78934148E-02 5.08556178E-02 1.14585058E-02-1.76559555E-01 9.83430526E-01
21  5-1.03107741E+00 4.76468858E-02-3.56899387E-02-8.04145911E-03 1.23907642E-01
21  6 0.00000000E+00 0.00000000E+00 0.00000000E+00 0.00000000E+00 0.00000000E+00
21  7 0.00000000E+00 0.00000000E+00 0.00000000E+00 0.00000000E+00 0.00000000E+00
22  1-0.00000000E+00-0.00000000E+00-0.00000000E+00-0.00000000E+00-0.00000000E+00
22  2-0.00000000E+00-0.00000000E+00-0.00000000E+00-0.00000000E+00-0.00000000E+00
22  3-0.00000000E+00-0.00000000E+00-0.00000000E+00-8.95897018E-01-7.70573171E-01
22  4 1.66647019E+00 2.10930872E-02 1.65483819E-02 4.55102239E-02 6.28731123E-01
22  5 5.40780162E-01-1.16951129E+00-1.48029072E-02-1.16134807E-02-3.19385974E-02
22  6-0.00000000E+00-0.00000000E+00-0.00000000E+00-0.00000000E+00-0.00000000E+00
22  7-0.00000000E+00-0.00000000E+00-0.00000000E+00-0.00000000E+00-0.00000000E+00
23  1-0.00000000E+00-0.00000000E+00-0.00000000E+00-0.00000000E+00-0.00000000E+00
23  2-0.00000000E+00-0.00000000E+00-0.00000000E+00-0.00000000E+00-0.00000000E+00
23  3-0.00000000E+00-0.00000000E+00-0.00000000E+00-0.00000000E+00-0.00000000E+00
23  4-0.00000000E+00-0.00000000E+00-0.00000000E+00-0.00000000E+00-0.00000000E+00
23  5-0.00000000E+00-0.00000000E+00-0.00000000E+00-0.00000000E+00-0.00000000E+00
23  6 4.29478011E-02-7.01862798E-02 9.89696830E-01 9.64864785E-02-6.96341654E-01
23  7-1.04033578E-01-6.31475980E-01 4.64130561E-02-2.32170280E-03 3.90890736E-02
24  1-0.00000000E+00-0.00000000E+00-0.00000000E+00-0.00000000E+00-0.00000000E+00
24  2-0.00000000E+00-0.00000000E+00-0.00000000E+00-0.00000000E+00-0.00000000E+00
24  3-0.00000000E+00-0.00000000E+00-0.00000000E+00-0.00000000E+00-0.00000000E+00
24  4-0.00000000E+00-0.00000000E+00-0.00000000E+00-0.00000000E+00-0.00000000E+00
24  5-0.00000000E+00-0.00000000E+00-0.00000000E+00-0.00000000E+00-0.00000000E+00
24  6 5.22086262E-01-7.83388723E-01-5.02747996E-02 2.51212847E-01 9.23574766E-02
24  7-2.81602920E-01-2.49067550E-02-4.18849304E-01 7.99813415E-01-4.13975487E-03
25  1 0.00000000E+00 0.00000000E+00 0.00000000E+00 0.00000000E+00 0.00000000E+00
25  2 0.00000000E+00 0.00000000E+00 0.00000000E+00 0.00000000E+00 0.00000000E+00
25  3 0.00000000E+00 0.00000000E+00 0.00000000E+00 0.00000000E+00 0.00000000E+00
25  4 0.00000000E+00 0.00000000E+00 0.00000000E+00 0.00000000E+00 0.00000000E+00
25  5 0.00000000E+00 0.00000000E+00 0.00000000E+00 0.00000000E+00 0.00000000E+00
25  6-6.61075173E-01-2.08873740E-01 2.34995179E-02-4.33776654E-01-1.46698801E-01
25  7 2.63300729E-01 1.15170890E-01 6.23624686E-01 7.14010183E-01 1.16295217E-01
26  1-0.00000000E+00-0.00000000E+00-0.00000000E+00-0.00000000E+00-0.00000000E+00
26  2-0.00000000E+00-0.00000000E+00-0.00000000E+00-0.00000000E+00-0.00000000E+00
26  3-0.00000000E+00-0.00000000E+00-0.00000000E+00-0.00000000E+00-0.00000000E+00
26  4-0.00000000E+00-0.00000000E+00-0.00000000E+00-0.00000000E+00-0.00000000E+00
26  5-0.00000000E+00-0.00000000E+00-0.00000000E+00-0.00000000E+00-0.00000000E+00
26  6 1.55115692E-01 2.97857001E-01 6.39338638E-02-4.91737835E-01 6.01786615E-04
26  7 4.20740463E-01-8.63780659E-02-6.28850003E-01 9.21207342E-02 6.32271540E-01
27  1-0.00000000E+00-0.00000000E+00-0.00000000E+00-0.00000000E+00-0.00000000E+00
27  2-0.00000000E+00-0.00000000E+00-0.00000000E+00-0.00000000E+00-0.00000000E+00
27  3-0.00000000E+00-0.00000000E+00-0.00000000E+00-0.00000000E+00-0.00000000E+00
27  4-0.00000000E+00-0.00000000E+00-0.00000000E+00-0.00000000E+00-0.00000000E+00
27  5-0.00000000E+00-0.00000000E+00-0.00000000E+00-0.00000000E+00-0.00000000E+00
27  6 1.29591779E-01-5.06504460E-02-1.03131410E-01 2.05036046E-01 1.18581170E-01
27  7-6.42666250E-01 1.97841350E-02 4.68800634E-01-1.37081342E-01 7.18296469E-01
28  1 0.00000000E+00 0.00000000E+00 0.00000000E+00 0.00000000E+00 0.00000000E+00
28  2 0.00000000E+00 0.00000000E+00 0.00000000E+00 0.00000000E+00 0.00000000E+00
28  3 0.00000000E+00 0.00000000E+00 0.00000000E+00 0.00000000E+00 0.00000000E+00
28  4 0.00000000E+00 0.00000000E+00 0.00000000E+00 0.00000000E+00 0.00000000E+00
28  5 0.00000000E+00 0.00000000E+00 0.00000000E+00 0.00000000E+00 0.00000000E+00
28  6-4.04207142E-01-4.74310947E-01-3.45770402E-02 7.88242558E-01-2.39322631E-01
28  7 6.12657835E-01 2.85712598E-01-7.03570469E-02-1.51887646E-01 2.61619507E-01
29  1 0.00000000E+00 0.00000000E+00 0.00000000E+00 0.00000000E+00 0.00000000E+00
29  2 0.00000000E+00 0.00000000E+00 0.00000000E+00 0.00000000E+00 0.00000000E+00
29  3 0.00000000E+00 0.00000000E+00 0.00000000E+00 0.00000000E+00 0.00000000E+00
29  4 0.00000000E+00 0.00000000E+00 0.00000000E+00 0.00000000E+00 0.00000000E+00
29  5 0.00000000E+00 0.00000000E+00 0.00000000E+00 0.00000000E+00 0.00000000E+00
29  6 2.90383739E-01 1.46603617E-01-3.87453578E-02-1.85062342E-01-7.83403269E-01
29  7-2.74148624E-01 8.35385621E-01-1.15442045E-01-1.16270500E-02-2.77208399E-02
30  1 2.20188789E+00 3.48690424E+00-2.45058896E+00-1.57856152E+00 0.00000000E+00
30  2 0.00000000E+00 0.00000000E+00 0.00000000E+00 0.00000000E+00 0.00000000E+00
30  3 0.00000000E+00 0.00000000E+00 0.00000000E+00 0.00000000E+00 0.00000000E+00
30  4 0.00000000E+00 0.00000000E+00 0.00000000E+00 0.00000000E+00 0.00000000E+00
30  5 0.00000000E+00 0.00000000E+00 0.00000000E+00 0.00000000E+00 0.00000000E+00
30  6 0.00000000E+00 0.00000000E+00 0.00000000E+00 0.00000000E+00 0.00000000E+00
30  7 0.00000000E+00 0.00000000E+00 0.00000000E+00 0.00000000E+00 0.00000000E+00
 $END   
