 $SCF DIRSCF=.TRUE. $END
 $TRANS	DIRTRF=.TRUE. $END
 $CONTRL SCFTYP=MCSCF ISPHER=1 COORD=CART PDFTYP=TPBE $END
 $SYSTEM TIMLIM=1 MWORDS=2  $END
 $BASIS  GBASIS=CCD $END
 $MCSCF CISTEP=ALDET CANONC=.false. $END
---- EXPERIMENTAL GEOM, R(OH)=0.75A 
 $DATA
Li2...cc-pVDZ BASIS...FORS-MCSCF...EXPERIMENTAL GEOMETRY
C1
Lithium 3   0.0  0.0   0.375000
Lithium 3   0.0   0.0  -0.375000
 $END
 $GUESS  GUESS=HUCKEL  $END
 $DET NSTATE=1 NCORE=1 NACT=3 NELS=4
 ANALYS=.false. $END

