! MCSCF TOTAL ENERGY   = -38.8991124678 
! MC-PDFT TOTAL ENERGY = -39.0274875996
! MC-PDFT NUMERICAL GRADIENT
! UNITS ARE HARTREE/BOHR    E'X               E'Y               E'Z
! 1 CARBON           0.000000000       0.000024502       0.186146777
! 2 HYDROGEN         0.000000000      -0.124357171      -0.093083005
! 3 HYDROGEN         0.000000000       0.124332669      -0.093063772
!
!                MAXIMUM GRADIENT =    0.186146777
!                    RMS GRADIENT =    0.095974101  
!
 $CONTRL scftyp=mcscf pdftyp=tPBE icharg=0 mult=1
   runtyp=gradient numgrd=.t. maxit=200 ispher=1 $END
 $SYSTEM mwords=100 $END
 $DFT nrad=99 nleb=590 $END
 $DET nstate=1 ncore=1 nact=6 nels=6 itermx=200 $END 
 $MCSCF maxit=50 cistep=aldet canonc=.t. soscf=.t. $END
 $GUESS guess=moread norb=24 $END
 $BASIS gbasis=ccD $END
 $DATA

C1
CARBON      6.0     -1.161937300         0.000000000         0.889814051
HYDROGEN    1.0     -1.161937300         0.759337000         1.485857051
HYDROGEN    1.0     -1.161937300        -0.759337000         1.485857051
 $END
--- CLOSED SHELL ORBITALS --- GENERATED AT Wed Jan 29 14:34:50 2020
                                                                                
E(RHF)=      -38.8482595849, E(NUC)=    6.9266471528,   10 ITERS
 $VEC   
 1  1 1.00242709E+00 4.58981093E-03-6.52202037E-03 0.00000000E+00 0.00000000E+00
 1  2 3.76099420E-03 0.00000000E+00 0.00000000E+00-1.59155578E-03-1.51868061E-03
 1  3 8.68215555E-04 6.50465059E-04 0.00000000E+00 0.00000000E+00 0.00000000E+00
 1  4-1.48614156E-03 1.92176970E-03 0.00000000E+00 9.70698711E-04 6.04022184E-04
 1  5-1.48614156E-03 1.92176970E-03 0.00000000E+00-9.70698711E-04 6.04022184E-04
 2  1-2.94618453E-02 3.66776133E-01 2.29383380E-01 0.00000000E+00 0.00000000E+00
 2  2 1.46453851E-01 0.00000000E+00 0.00000000E+00 4.75962806E-03-1.00029239E-02
 2  3 4.84967273E-04 9.51795667E-03 0.00000000E+00 0.00000000E+00 0.00000000E+00
 2  4 2.81960601E-01 3.96033322E-02 0.00000000E+00-2.84714671E-02-1.69518034E-02
 2  5 2.81960601E-01 3.96033322E-02 0.00000000E+00 2.84714671E-02-1.69518034E-02
 3  1 0.00000000E+00 0.00000000E+00 0.00000000E+00 0.00000000E+00 4.60390191E-01
 3  2 0.00000000E+00 0.00000000E+00 1.52006415E-01 0.00000000E+00 0.00000000E+00
 3  3 0.00000000E+00 0.00000000E+00 0.00000000E+00 0.00000000E+00 5.03464766E-02
 3  4 3.34835703E-01 1.26120266E-01 0.00000000E+00-1.05899725E-02-1.78480057E-02
 3  5-3.34835703E-01-1.26120266E-01 0.00000000E+00-1.05899725E-02 1.78480057E-02
 4  1 2.68350343E-03-2.04129751E-01-4.12900433E-01 0.00000000E+00 0.00000000E+00
 4  2 5.10965615E-01 0.00000000E+00 0.00000000E+00 3.90491364E-01-2.44589711E-02
 4  3-1.08117716E-02 3.52707427E-02 0.00000000E+00 0.00000000E+00 0.00000000E+00
 4  4 1.35287440E-01 3.29360585E-02 0.00000000E+00-9.73800683E-03 1.03806253E-02
 4  5 1.35287440E-01 3.29360585E-02 0.00000000E+00 9.73800683E-03 1.03806253E-02
 5  1 0.00000000E+00 0.00000000E+00 0.00000000E+00 4.32335959E-01 0.00000000E+00
 5  2 0.00000000E+00 6.87869990E-01 0.00000000E+00 0.00000000E+00 0.00000000E+00
 5  3 0.00000000E+00 0.00000000E+00 0.00000000E+00 3.45942072E-02 0.00000000E+00
 5  4 0.00000000E+00 0.00000000E+00 1.53440040E-02 0.00000000E+00 0.00000000E+00
 5  5 0.00000000E+00 0.00000000E+00 1.53440040E-02 0.00000000E+00 0.00000000E+00
 6  1-6.92056026E-02 7.10996714E-02 2.22692871E+00 0.00000000E+00 0.00000000E+00
 6  2 1.58067536E-01 0.00000000E+00 0.00000000E+00 7.28842259E-01-3.24153927E-02
 6  3 1.56444441E-02 1.67709486E-02 0.00000000E+00 0.00000000E+00 0.00000000E+00
 6  4 1.03093006E-02-1.55846550E+00 0.00000000E+00 2.12555358E-02 9.82496957E-03
 6  5 1.03093006E-02-1.55846550E+00 0.00000000E+00-2.12555358E-02 9.82496957E-03
 7  1 0.00000000E+00 0.00000000E+00 0.00000000E+00 0.00000000E+00 3.12225260E-01
 7  2 0.00000000E+00 0.00000000E+00 1.38612677E+00 0.00000000E+00 0.00000000E+00
 7  3 0.00000000E+00 0.00000000E+00 0.00000000E+00 0.00000000E+00 5.56432920E-02
 7  4 7.66061265E-03-2.21322452E+00 0.00000000E+00 2.67837801E-02 1.53287075E-02
 7  5-7.66061265E-03 2.21322452E+00 0.00000000E+00 2.67837801E-02-1.53287075E-02
 8  1 0.00000000E+00 0.00000000E+00 0.00000000E+00 0.00000000E+00-2.79269674E-01
 8  2 0.00000000E+00 0.00000000E+00 1.60903930E+00 0.00000000E+00 0.00000000E+00
 8  3 0.00000000E+00 0.00000000E+00 0.00000000E+00 0.00000000E+00-8.32681867E-02
 8  4-6.31886653E-01-4.43028208E-01 0.00000000E+00-1.37475057E-02-2.63599214E-02
 8  5 6.31886653E-01 4.43028208E-01 0.00000000E+00-1.37475057E-02 2.63599214E-02
 9  1-1.15987900E-02 1.17050436E-01 1.14931473E+00 0.00000000E+00 0.00000000E+00
 9  2-7.52436123E-01 0.00000000E+00 0.00000000E+00 1.53671366E+00 3.61785058E-02
 9  3-5.32234114E-02 1.70449056E-02 0.00000000E+00 0.00000000E+00 0.00000000E+00
 9  4-4.23239603E-01-4.90235465E-01 0.00000000E+00 3.90430112E-02-2.20089643E-02
 9  5-4.23239603E-01-4.90235465E-01 0.00000000E+00-3.90430112E-02-2.20089643E-02
10  1 0.00000000E+00 0.00000000E+00 0.00000000E+00 1.05112178E+00 0.00000000E+00
10  2 0.00000000E+00-9.93310238E-01 0.00000000E+00 0.00000000E+00 0.00000000E+00
10  3 0.00000000E+00 0.00000000E+00 0.00000000E+00 1.72930036E-03 0.00000000E+00
10  4 0.00000000E+00 0.00000000E+00 9.53679266E-02 0.00000000E+00 0.00000000E+00
10  5 0.00000000E+00 0.00000000E+00 9.53679266E-02 0.00000000E+00 0.00000000E+00
11  1-2.84149211E-01-5.01956508E-01 1.19111317E+00 0.00000000E+00 0.00000000E+00
11  2 4.24968380E-01 0.00000000E+00 0.00000000E+00 1.23914279E-01 2.79425038E-01
11  3-2.86181811E-01 6.75677293E-03 0.00000000E+00 0.00000000E+00 0.00000000E+00
11  4-6.40117869E-01-2.08934091E-02 0.00000000E+00-2.30479423E-01-5.58899723E-03
11  5-6.40117869E-01-2.08934091E-02 0.00000000E+00 2.30479423E-01-5.58899723E-03
12  1 0.00000000E+00 0.00000000E+00 0.00000000E+00 0.00000000E+00-7.70268522E-01
12  2 0.00000000E+00 0.00000000E+00 1.60190228E+00 0.00000000E+00 0.00000000E+00
12  3 0.00000000E+00 0.00000000E+00 0.00000000E+00 0.00000000E+00 4.06069803E-01
12  4 2.89089292E-01-1.62009275E+00 0.00000000E+00 1.73099400E-01 2.27660826E-01
12  5-2.89089292E-01 1.62009275E+00 0.00000000E+00 1.73099400E-01-2.27660826E-01
13  1-7.09415144E-01-1.67455888E+00 3.91295611E+00 0.00000000E+00 0.00000000E+00
13  2-7.28802295E-02 0.00000000E+00 0.00000000E+00 9.26643576E-01-1.17257901E-01
13  3 1.03831941E-01 1.34259604E-02 0.00000000E+00 0.00000000E+00 0.00000000E+00
13  4-1.31660085E-02-1.43897601E+00 0.00000000E+00 1.97683028E-01 1.66200212E-01
13  5-1.31660085E-02-1.43897601E+00 0.00000000E+00-1.97683028E-01 1.66200212E-01
14  1 0.00000000E+00 0.00000000E+00 0.00000000E+00 0.00000000E+00 0.00000000E+00
14  2 0.00000000E+00 0.00000000E+00 0.00000000E+00 0.00000000E+00 0.00000000E+00
14  3 0.00000000E+00 0.00000000E+00 6.48054475E-01 0.00000000E+00 0.00000000E+00
14  4 0.00000000E+00 0.00000000E+00 3.36922019E-01 0.00000000E+00 0.00000000E+00
14  5 0.00000000E+00 0.00000000E+00-3.36922019E-01 0.00000000E+00 0.00000000E+00
15  1 1.17975052E-01 2.23655777E-01-5.23290086E-01 0.00000000E+00 0.00000000E+00
15  2-2.31837051E-01 0.00000000E+00 0.00000000E+00-2.51009349E-01-3.79084062E-01
15  3-2.48112533E-01 6.27196595E-01 0.00000000E+00 0.00000000E+00 0.00000000E+00
15  4 1.68596205E-01 1.06085199E-01 0.00000000E+00-1.52924022E-01 2.99752281E-01
15  5 1.68596205E-01 1.06085199E-01 0.00000000E+00 1.52924022E-01 2.99752281E-01
16  1 0.00000000E+00 0.00000000E+00 0.00000000E+00-2.20104985E-01 0.00000000E+00
16  2 0.00000000E+00-7.22990474E-02 0.00000000E+00 0.00000000E+00 0.00000000E+00
16  3 0.00000000E+00 0.00000000E+00 0.00000000E+00 7.70656467E-01 0.00000000E+00
16  4 0.00000000E+00 0.00000000E+00 2.74129543E-01 0.00000000E+00 0.00000000E+00
16  5 0.00000000E+00 0.00000000E+00 2.74129543E-01 0.00000000E+00 0.00000000E+00
17  1-3.61886045E-01-6.40147855E-01 1.90050843E+00 0.00000000E+00 0.00000000E+00
17  2 5.52172070E-02 0.00000000E+00 0.00000000E+00 8.15828648E-01-9.95602074E-01
17  3 7.74400604E-01 2.21201470E-01 0.00000000E+00 0.00000000E+00 0.00000000E+00
17  4-8.13879519E-01-4.02448071E-01 0.00000000E+00-1.75500948E-01-1.88335423E-01
17  5-8.13879519E-01-4.02448071E-01 0.00000000E+00 1.75500948E-01-1.88335423E-01
18  1 0.00000000E+00 0.00000000E+00 0.00000000E+00 0.00000000E+00-1.82881823E-01
18  2 0.00000000E+00 0.00000000E+00-4.54941743E-01 0.00000000E+00 0.00000000E+00
18  3 0.00000000E+00 0.00000000E+00 0.00000000E+00 0.00000000E+00 1.10019352E-01
18  4 1.15195357E-01 1.44087497E-01 0.00000000E+00 5.79684286E-01-5.88121192E-01
18  5-1.15195357E-01-1.44087497E-01 0.00000000E+00 5.79684286E-01 5.88121192E-01
19  1 0.00000000E+00 0.00000000E+00 0.00000000E+00 0.00000000E+00-1.28110893E-01
19  2 0.00000000E+00 0.00000000E+00 6.34002940E-01 0.00000000E+00 0.00000000E+00
19  3 0.00000000E+00 0.00000000E+00 0.00000000E+00 0.00000000E+00 1.08569316E+00
19  4-7.19488314E-01 5.69482196E-02 0.00000000E+00-2.76755136E-01-3.03795943E-01
19  5 7.19488314E-01-5.69482196E-02 0.00000000E+00-2.76755136E-01 3.03795943E-01
20  1 0.00000000E+00 0.00000000E+00 0.00000000E+00 0.00000000E+00 0.00000000E+00
20  2 0.00000000E+00 0.00000000E+00 0.00000000E+00 0.00000000E+00 0.00000000E+00
20  3 0.00000000E+00 0.00000000E+00 1.07631210E+00 0.00000000E+00 0.00000000E+00
20  4 0.00000000E+00 0.00000000E+00-8.46944026E-01 0.00000000E+00 0.00000000E+00
20  5 0.00000000E+00 0.00000000E+00 8.46944026E-01 0.00000000E+00 0.00000000E+00
21  1 0.00000000E+00 0.00000000E+00 0.00000000E+00-4.05630105E-01 0.00000000E+00
21  2 0.00000000E+00-3.37281164E-01 0.00000000E+00 0.00000000E+00 0.00000000E+00
21  3 0.00000000E+00 0.00000000E+00 0.00000000E+00-8.81958919E-01 0.00000000E+00
21  4 0.00000000E+00 0.00000000E+00 8.85989170E-01 0.00000000E+00 0.00000000E+00
21  5 0.00000000E+00 0.00000000E+00 8.85989170E-01 0.00000000E+00 0.00000000E+00
22  1-7.76629809E-02-1.44322696E-01 6.23150727E-01 0.00000000E+00 0.00000000E+00
22  2 3.58377970E-01 0.00000000E+00 0.00000000E+00 5.43233875E-01-1.31358097E-01
22  3-1.10136305E+00 1.23272115E+00 0.00000000E+00 0.00000000E+00 0.00000000E+00
22  4-1.27700415E-01-2.27503437E-01 0.00000000E+00 6.36692286E-01-7.99019354E-01
22  5-1.27700415E-01-2.27503437E-01 0.00000000E+00-6.36692286E-01-7.99019354E-01
23  1 0.00000000E+00 0.00000000E+00 0.00000000E+00 0.00000000E+00 1.85028356E+00
23  2 0.00000000E+00 0.00000000E+00 9.57045316E-01 0.00000000E+00 0.00000000E+00
23  3 0.00000000E+00 0.00000000E+00 0.00000000E+00 0.00000000E+00 1.46544993E+00
23  4-1.78571088E+00-6.34242607E-01 0.00000000E+00 1.00593318E+00 7.93433566E-01
23  5 1.78571088E+00 6.34242607E-01 0.00000000E+00 1.00593318E+00-7.93433566E-01
24  1 9.18061713E-01 1.91128293E+00 1.43076254E+00 0.00000000E+00 0.00000000E+00
24  2 1.40673114E+00 0.00000000E+00 0.00000000E+00 4.92892149E-01-7.46606401E-01
24  3 7.02020098E-01 4.45863034E-02 0.00000000E+00 0.00000000E+00 0.00000000E+00
24  4-1.56900350E+00-4.54398002E-01 0.00000000E+00 9.90185945E-01 8.48241217E-01
24  5-1.56900350E+00-4.54398002E-01 0.00000000E+00-9.90185945E-01 8.48241217E-01
 $END   
