! RI-CCSD(T) energy for N,N-(dimethylamino)benzonitrile using 
! the cc-pVDZ and aug-cc-pVTZ-RI basis sets.
!
! (Please always run an EXETYP=CHECK job to get a detailed
!  information about MWORDS, MEMDDI in $SYSTEM and IOSIZE in
!  $CCINP. This is strongly recommended.)
!
!    ------------------------------------------------
!             SUMMARY OF ENERGY CALCULATIONS
!    ------------------------------------------------
!     COUPLED-CLUSTER METHOD             CCSD(T)
!     REFERENCE STATE ENERGY        -455.5473202096
!     MP2 CORRELATION ENERGY          -1.5089342520
!     CCSD CORRELATION ENERGY         -1.5728475073
!     CCSD(T) CORRELATION ENERGY      -1.6394911473
!    ------------------------------------------------
!     TOTAL RI-MP2 ENERGY           -457.0562544616
!     TOTAL RI-CCSD ENERGY          -457.1201677169
!     TOTAL RI-CCSD(T) ENERGY       -457.1868113569
!    ------------------------------------------------
!
! This job used 1 MPI rank on 1 compute node and 16 OpenMP 
! threads and took ~26 minutes of wall time on a 24 core
! 2.40 GHz Intel Xeon CPU.
! Test case generated on September 3, 2020.
!
 $CONTRL ISPHER=1 MULT=1 ICHARG=0 SCFTYP=RHF 
         CCTYP=CCSD(T) RUNTYP=ENERGY $END
 $BASIS GBASIS=CCD $END
 $GUESS GUESS=HUCKEL $END
 $SCF DIRSCF=.TRUE. $END
 $INTGRL INTOMP=1 $END
 $CCINP MAXCC=100 ICONV=7 CCERI=RI $END

 $RICC CABNAM=ACCT EXTCAB=.FALSE. USEDM3=.FALSE. 
                                  USEDM4=.TRUE. $END

 $SYSTEM PARALL=.TRUE. TIMLIM=100 MWORDS=500 $END
 $DATA
 N,N-(dimethylamino)benzonitrile cc-pVDZ/aug-cc-pVTZ-RI
C1
 N  7.0   2.5252    0.0004   -0.0015
 N  7.0  -4.2659   -0.0007    0.0008
 C  6.0   1.1147    0.0004   -0.0017
 C  6.0   0.4170    1.1902   -0.2092
 C  6.0   0.4177   -1.1896    0.2068
 C  6.0   3.2623    1.1669    0.4259
 C  6.0   3.2630   -1.1678   -0.4221
 C  6.0  -0.9779    1.1901   -0.2080
 C  6.0  -0.9772   -1.1898    0.2078
 C  6.0  -1.6750    0.0000    0.0004
 C  6.0  -3.1039   -0.0003    0.0007
 H  1.0   0.9296    2.1316   -0.3860
 H  1.0   0.9307   -2.1307    0.3833
 H  1.0   4.2943    0.9115    0.6923
 H  1.0   2.8137    1.6221    1.3163
 H  1.0   3.3052    1.9142   -0.3735
 H  1.0   3.3074   -1.9100    0.3819
 H  1.0   4.2944   -0.9127   -0.6910
 H  1.0   2.8144   -1.6291   -1.3092
 H  1.0  -1.5081    2.1250   -0.3737
 H  1.0  -1.5068   -2.1249    0.3742
 $END
!TRAVIS-CI LARGE
