 $CONTRL 
   SCFTYP=UHF 
   RUNTYP=ENERGY
   DFTTYP=BHHLYP
   ICHARG=0
   TDDFT=MRSF 
   MAXIT=200 
   MULT=3 
   NPRINT=8
 $END
 $SCF
   COUPLE=.TRUE. ALPHA(1)= 0.5,0.5, 0.5  BETA(1) = 0.5,0.5, 0.5
 $END
 $TDDFT
   NSTATE=5
   IROOT=1
   MULT=1
 $END
 $GUESS GUESS=MOREAD NORB=64 $END
 $BASIS GBASIS=N31 NGAUSS=6 NDFUNC=1 $END
 $SYSTEM TIMLIM=999999100 MWORDS=500 $END
 $DATA

 c1
 C           6.0  -0.0000000000   0.6505243427  -0.0165521420
 C           6.0   0.0000000000  -0.6505243428  -0.0165521421
 F           9.0  -0.0000000000   1.2156446665  -0.9192030778
 F           9.0   0.0000000000  -1.2156446664  -0.9192030780
 H           1.0  -0.0000000000  -1.3965430797   1.1178852200
 H           1.0   0.0000000000   1.3965430798   1.1178852199
 $end
--- OPEN SHELL ORBITALS --- GENERATED AT 01:32:33 14-NOV-2021    
cis-DFE Gas RO-SF-CIS/3-21G S0                                                  
E(U-BHHLYP)=     -276.7700569382, E(NUC)=  114.3799891943,   10 ITERS
 $VEC   
 1  1 3.71373312E-05 3.07486168E-04 0.00000000E+00-1.67460343E-04 4.97202496E-05
 1  2-2.43235899E-04 0.00000000E+00-9.72171829E-04 9.38054639E-04-9.83704209E-07
 1  3-1.96567444E-04-6.38553467E-04 0.00000000E+00 0.00000000E+00 7.00470334E-04
 1  4-3.58107849E-05-2.98716557E-04 0.00000000E+00-1.66979508E-04-4.74617537E-05
 1  5 2.25518407E-04 0.00000000E+00-9.63742247E-04-9.27572618E-04 3.65952556E-07
 1  6 1.92250401E-04 6.27254503E-04 0.00000000E+00 0.00000000E+00 6.93440576E-04
 1  7 7.09574774E-01 1.34934099E-02 0.00000000E+00-6.22372981E-04 9.65117240E-04
 1  8 1.13118202E-02 0.00000000E+00-4.56003999E-05 2.49749022E-04-5.20777771E-03
 1  9-5.20624201E-03-5.05850331E-03 0.00000000E+00 0.00000000E+00-8.36571177E-05
 1 10-6.95093653E-01-1.32145993E-02 0.00000000E+00-6.09791998E-04-9.47009210E-04
 1 11-1.10993575E-02 0.00000000E+00-4.59129044E-05-2.47833496E-04 5.10531157E-03
 1 12 5.10281511E-03 4.95672045E-03 0.00000000E+00 0.00000000E+00-8.22472647E-05
 1 13 6.53302312E-05-7.20811751E-06-6.53187599E-05 5.94828772E-06
 2  1 6.39990372E-05 4.22421209E-04 0.00000000E+00-2.14474306E-05 1.09034800E-04
 2  2-8.55416618E-04 0.00000000E+00-3.98279247E-04 4.98092341E-04-2.99791758E-05
 2  3-2.07285155E-04-5.41647533E-04 0.00000000E+00 0.00000000E+00 3.33772062E-04
 2  4 6.47492371E-05 4.28660915E-04 0.00000000E+00 2.48968033E-05 1.10038605E-04
 2  5-8.60322961E-04 0.00000000E+00 4.18241739E-04 5.17388640E-04-2.99928595E-05
 2  6-2.11300735E-04-5.54693979E-04 0.00000000E+00 0.00000000E+00-3.48143190E-04
 2  7 6.95130620E-01 1.33871592E-02 0.00000000E+00-6.03903284E-04 8.68582637E-04
 2  8 1.01826755E-02 0.00000000E+00 1.59271611E-05 8.95757410E-05-4.91497804E-03
 2  9-4.96125063E-03-4.88357285E-03 0.00000000E+00 0.00000000E+00-6.74914515E-05
 2 10 7.09610983E-01 1.36624264E-02 0.00000000E+00 6.16602790E-04 8.88291220E-04
 2 11 1.04139327E-02 0.00000000E+00-1.49689082E-05 9.47309908E-05-5.02134324E-03
 2 12-5.06758211E-03-4.98686154E-03 0.00000000E+00 0.00000000E+00 6.92043667E-05
 2 13-1.99525676E-07-6.10607056E-05 1.14923602E-06-6.11888089E-05
 3  1 7.02388772E-01 3.29396089E-02 0.00000000E+00 1.62567382E-03-2.96051234E-03
 3  2-1.82324370E-03 0.00000000E+00 6.51694758E-04-7.45161052E-04-5.85328515E-03
 3  3-5.41621484E-03-5.23410018E-03 0.00000000E+00 0.00000000E+00-9.68434002E-04
 3  4 7.02073706E-01 3.29243434E-02 0.00000000E+00-1.62511409E-03-2.95919416E-03
 3  5-1.81568815E-03 0.00000000E+00-6.47978956E-04-7.45261398E-04-5.85098914E-03
 3  6-5.41385645E-03-5.23202818E-03 0.00000000E+00 0.00000000E+00 9.67902080E-04
 3  7-2.87145342E-04 1.24817814E-03 0.00000000E+00-2.52844465E-04 4.54670573E-04
 3  8-5.36261001E-03 0.00000000E+00 1.51112270E-03-2.94707668E-03 6.97101327E-04
 3  9 4.82715272E-04-1.88443981E-04 0.00000000E+00 0.00000000E+00 4.81821863E-04
 3 10-2.87007319E-04 1.24769982E-03 0.00000000E+00 2.52808009E-04 4.54494555E-04
 3 11-5.36060642E-03 0.00000000E+00-1.51079955E-03-2.94568228E-03 6.96752389E-04
 3 12 4.82573578E-04-1.88314390E-04 0.00000000E+00 0.00000000E+00-4.81620918E-04
 3 13-1.38770306E-04 7.13960710E-04-1.38742832E-04 7.13902732E-04
 4  1-7.02562377E-01-3.36915198E-02-0.00000000E+00-1.26691602E-03 3.13928447E-03
 4  2 7.15496553E-03-0.00000000E+00-3.22241344E-03 2.23998492E-03 5.49692856E-03
 4  3 5.13268314E-03 4.66154720E-03-0.00000000E+00-0.00000000E+00 1.10224252E-03
 4  4 7.02877186E-01 3.37063057E-02-0.00000000E+00-1.26762265E-03-3.14061359E-03
 4  5-7.15583791E-03-0.00000000E+00-3.22278658E-03-2.24025833E-03-5.49953017E-03
 4  6-5.13510232E-03-4.66388868E-03-0.00000000E+00-0.00000000E+00 1.10268174E-03
 4  7 1.82056755E-04-1.81402340E-03-0.00000000E+00 2.22489514E-04-3.51424403E-04
 4  8 7.79944573E-03-0.00000000E+00-1.82394129E-03 3.22657372E-03-1.15289195E-03
 4  9-7.57120406E-04-2.15814762E-04-0.00000000E+00-0.00000000E+00-6.20866693E-04
 4 10-1.82195412E-04 1.81453037E-03-0.00000000E+00 2.22589687E-04 3.51629533E-04
 4 11-7.80166847E-03-0.00000000E+00-1.82455273E-03-3.22790148E-03 1.15316436E-03
 4 12 7.57310512E-04 2.15679678E-04-0.00000000E+00-0.00000000E+00-6.21078787E-04
 4 13 1.26655990E-04 7.80452626E-04-1.26727509E-04-7.80155747E-04
 5  1-7.66589422E-02 1.41537839E-01 0.00000000E+00 5.42978370E-02-1.22502777E-01
 5  2 3.94251422E-02 0.00000000E+00 1.27396129E-03 2.28245551E-03-1.73166510E-02
 5  3-3.39067666E-03 1.52666617E-02 0.00000000E+00 0.00000000E+00-2.11971713E-02
 5  4-7.66585950E-02 1.41537375E-01 0.00000000E+00-5.42973887E-02-1.22502078E-01
 5  5 3.94253665E-02 0.00000000E+00-1.27342687E-03 2.28265045E-03-1.73167234E-02
 5  6-3.39079646E-03 1.52663742E-02 0.00000000E+00 0.00000000E+00 2.11970471E-02
 5  7-1.47833497E-01 3.45455899E-01 0.00000000E+00-6.29497268E-02 8.85816762E-02
 5  8 2.02166712E-01 0.00000000E+00-9.20964274E-03 4.18853284E-03 1.45408275E-02
 5  9 1.75414000E-02 1.77975556E-02 0.00000000E+00 0.00000000E+00-3.58956859E-03
 5 10-1.47832675E-01 3.45453479E-01 0.00000000E+00 6.29493752E-02 8.85811147E-02
 5 11 2.02166669E-01 0.00000000E+00 9.20961041E-03 4.18860312E-03 1.45404442E-02
 5 12 1.75410337E-02 1.77971346E-02 0.00000000E+00 0.00000000E+00 3.58951694E-03
 5 13 5.11542199E-03-5.08337957E-03 5.11544922E-03-5.08342423E-03
 6  1 6.81423491E-02-1.18314002E-01-0.00000000E+00-8.77976210E-02 1.17696034E-01
 6  2-3.62996864E-02-0.00000000E+00-1.15473226E-03-1.97803797E-02 1.65646823E-02
 6  3 1.39223166E-02-1.76927503E-02-0.00000000E+00-0.00000000E+00 2.53053222E-02
 6  4-6.81427767E-02 1.18315192E-01-0.00000000E+00-8.77980120E-02-1.17696936E-01
 6  5 3.63004939E-02-0.00000000E+00-1.15507079E-03 1.97801481E-02-1.65648085E-02
 6  6-1.39223406E-02 1.76929145E-02-0.00000000E+00-0.00000000E+00 2.53054840E-02
 6  7 1.53384244E-01-3.53059786E-01-0.00000000E+00 5.59233928E-02-9.14175145E-02
 6  8-2.31680467E-01-0.00000000E+00 7.10796103E-03-8.25426212E-03-1.29524074E-02
 6  9-1.36772152E-02-1.73759675E-02-0.00000000E+00-0.00000000E+00 3.91799912E-03
 6 10-1.53385007E-01 3.53062328E-01-0.00000000E+00 5.59237595E-02 9.14180365E-02
 6 11 2.31679632E-01-0.00000000E+00 7.10778202E-03 8.25383165E-03 1.29529452E-02
 6 12 1.36776815E-02 1.73763652E-02-0.00000000E+00-0.00000000E+00 3.91791129E-03
 6 13 3.78528259E-03-7.93799453E-03-3.78527623E-03 7.93790434E-03
 7  1-1.34548897E-01 2.62600892E-01 0.00000000E+00-1.86484187E-01-1.79424045E-02
 7  2 1.55736200E-01 0.00000000E+00-2.06542892E-02 1.99225525E-02-4.96859046E-03
 7  3 4.62034807E-03-9.94824294E-03 0.00000000E+00 0.00000000E+00 9.21245423E-03
 7  4-1.34549033E-01 2.62601108E-01 0.00000000E+00 1.86484208E-01-1.79428697E-02
 7  5 1.55743487E-01 0.00000000E+00 2.06560111E-02 1.99217701E-02-4.96906967E-03
 7  6 4.62026453E-03-9.94851281E-03 0.00000000E+00 0.00000000E+00-9.21233396E-03
 7  7 6.48811644E-02-1.48388059E-01 0.00000000E+00-1.81461861E-01 1.04808531E-01
 7  8-1.98714477E-01 0.00000000E+00-1.03435316E-01 6.02332604E-02-7.89228501E-03
 7  9 7.87683248E-03 7.66565185E-04 0.00000000E+00 0.00000000E+00-1.32807446E-02
 7 10 6.48813500E-02-1.48387252E-01 0.00000000E+00 1.81461849E-01 1.04808552E-01
 7 11-1.98718415E-01 0.00000000E+00 1.03434666E-01 6.02324353E-02-7.89171542E-03
 7 12 7.87741705E-03 7.66947008E-04 0.00000000E+00 0.00000000E+00 1.32805807E-02
 7 13 2.68737491E-02-5.31041807E-03 2.68737579E-02-5.30974950E-03
 8  1-8.21007680E-02 1.61837792E-01-0.00000000E+00 1.22115869E-01-9.91607731E-02
 8  2 1.26169982E-01-0.00000000E+00-1.36545097E-02 4.99320422E-02-1.11934083E-02
 8  3-1.35164445E-02 6.73049408E-03-0.00000000E+00-0.00000000E+00-1.59327197E-02
 8  4 8.21007542E-02-1.61838245E-01-0.00000000E+00 1.22115196E-01 9.91605331E-02
 8  5-1.26169733E-01-0.00000000E+00-1.36545841E-02-4.99321678E-02 1.11933429E-02
 8  6 1.35164002E-02-6.73057300E-03-0.00000000E+00-0.00000000E+00-1.59326879E-02
 8  7 6.28962041E-02-1.44756658E-01-0.00000000E+00-1.65015342E-01 3.56938550E-01
 8  8-2.38448103E-01-0.00000000E+00-7.95931209E-02 1.78558750E-01-1.02480456E-02
 8  9-3.62981449E-03 1.17071701E-02-0.00000000E+00-0.00000000E+00-1.11096336E-02
 8 10-6.28960571E-02 1.44756533E-01-0.00000000E+00-1.65015161E-01-3.56937463E-01
 8 11 2.38447160E-01-0.00000000E+00-7.95929953E-02-1.78558001E-01 1.02481069E-02
 8 12 3.62995256E-03-1.17069085E-02-0.00000000E+00-0.00000000E+00-1.11095343E-02
 8 13-2.64345607E-02 1.77611248E-03 2.64345785E-02-1.77612593E-03
 9  1-1.24444824E-02 3.93958686E-02-0.00000000E+00 2.53356417E-01-5.97592524E-02
 9  2-5.58837632E-04-0.00000000E+00 3.43378604E-02 1.56229415E-02-7.09606417E-03
 9  3 8.74663876E-04 4.50786433E-03-0.00000000E+00-0.00000000E+00-2.26786679E-02
 9  4-1.24446919E-02 3.93965114E-02-0.00000000E+00-2.53357061E-01-5.97595542E-02
 9  5-5.56727560E-04-0.00000000E+00-3.43367129E-02 1.56207339E-02-7.09620669E-03
 9  6 8.74352071E-04 4.50786563E-03-0.00000000E+00-0.00000000E+00 2.26787027E-02
 9  7 3.26356689E-02-5.81570898E-02-0.00000000E+00 6.99620444E-02 3.87724093E-01
 9  8-1.80736996E-01-0.00000000E+00 6.90453692E-02 1.99449296E-01 2.10945828E-03
 9  9-1.00039049E-02 2.47336981E-02-0.00000000E+00-0.00000000E+00-1.33429469E-03
 9 10 3.26359369E-02-5.81568703E-02-0.00000000E+00-6.99612886E-02 3.87724958E-01
 9 11-1.80740179E-01-0.00000000E+00-6.90453465E-02 1.99449627E-01 2.10981247E-03
 9 12-1.00035083E-02 2.47341260E-02-0.00000000E+00-0.00000000E+00 1.33424414E-03
 9 13 2.51745583E-02 1.00039804E-02 2.51744503E-02 1.00030155E-02
10  1 0.00000000E+00 0.00000000E+00 2.21976157E-01 0.00000000E+00 0.00000000E+00
10  2 0.00000000E+00 6.69865127E-02 0.00000000E+00 0.00000000E+00 0.00000000E+00
10  3 0.00000000E+00 0.00000000E+00 2.84033481E-03-2.12792097E-02 0.00000000E+00
10  4 0.00000000E+00 0.00000000E+00 2.21975756E-01 0.00000000E+00 0.00000000E+00
10  5 0.00000000E+00 6.69866528E-02 0.00000000E+00 0.00000000E+00 0.00000000E+00
10  6 0.00000000E+00 0.00000000E+00-2.84031258E-03-2.12791828E-02 0.00000000E+00
10  7 0.00000000E+00 0.00000000E+00 4.02818046E-01 0.00000000E+00 0.00000000E+00
10  8 0.00000000E+00 2.34723347E-01 0.00000000E+00 0.00000000E+00 0.00000000E+00
10  9 0.00000000E+00 0.00000000E+00-1.28441825E-02 1.54628317E-02 0.00000000E+00
10 10 0.00000000E+00 0.00000000E+00 4.02816888E-01 0.00000000E+00 0.00000000E+00
10 11 0.00000000E+00 2.34722567E-01 0.00000000E+00 0.00000000E+00 0.00000000E+00
10 12 0.00000000E+00 0.00000000E+00 1.28440982E-02 1.54627540E-02 0.00000000E+00
10 13 0.00000000E+00 0.00000000E+00 0.00000000E+00 0.00000000E+00
11  1-5.90881943E-02 1.09233339E-01 0.00000000E+00-8.18032576E-02 2.48907916E-01
11  2 1.59164062E-01 0.00000000E+00 1.37683647E-02 5.53038959E-02 9.52805851E-03
11  3 1.83425001E-02-2.70326068E-02 0.00000000E+00 0.00000000E+00 6.28013061E-03
11  4-5.90882073E-02 1.09232713E-01 0.00000000E+00 8.18034787E-02 2.48907302E-01
11  5 1.59170090E-01 0.00000000E+00-1.37664765E-02 5.53055513E-02 9.52778307E-03
11  6 1.83422798E-02-2.70327898E-02 0.00000000E+00 0.00000000E+00-6.28015654E-03
11  7-1.37392285E-02 3.29630384E-02 0.00000000E+00 3.24980738E-01-5.16417226E-02
11  8 7.66430061E-02 0.00000000E+00 1.85921766E-01-5.79083976E-03 5.67023714E-03
11  9-1.10471095E-02 8.07192210E-03 0.00000000E+00 0.00000000E+00 8.45846689E-03
11 10-1.37392094E-02 3.29635534E-02 0.00000000E+00-3.24980111E-01-5.16423679E-02
11 11 7.66419906E-02 0.00000000E+00-1.85921747E-01-5.79165616E-03 5.67057668E-03
11 12-1.10468000E-02 8.07213461E-03 0.00000000E+00 0.00000000E+00-8.45851320E-03
11 13 7.46035988E-02 4.08837910E-02 7.46038500E-02 4.08853228E-02
12  1-0.00000000E+00-0.00000000E+00-1.59386922E-01-0.00000000E+00-0.00000000E+00
12  2-0.00000000E+00-5.62270569E-02-0.00000000E+00-0.00000000E+00-0.00000000E+00
12  3-0.00000000E+00-0.00000000E+00-1.58349317E-02 2.10911159E-02-0.00000000E+00
12  4-0.00000000E+00-0.00000000E+00 1.59387621E-01-0.00000000E+00-0.00000000E+00
12  5-0.00000000E+00 5.62271691E-02-0.00000000E+00-0.00000000E+00-0.00000000E+00
12  6-0.00000000E+00-0.00000000E+00-1.58349080E-02-2.10911603E-02-0.00000000E+00
12  7-0.00000000E+00-0.00000000E+00-4.52142371E-01-0.00000000E+00-0.00000000E+00
12  8-0.00000000E+00-2.69053633E-01-0.00000000E+00-0.00000000E+00-0.00000000E+00
12  9-0.00000000E+00-0.00000000E+00 1.06640313E-02-1.59513213E-02-0.00000000E+00
12 10-0.00000000E+00-0.00000000E+00 4.52143344E-01-0.00000000E+00-0.00000000E+00
12 11-0.00000000E+00 2.69054213E-01-0.00000000E+00-0.00000000E+00-0.00000000E+00
12 12-0.00000000E+00-0.00000000E+00 1.06640960E-02 1.59513558E-02-0.00000000E+00
12 13-0.00000000E+00-0.00000000E+00-0.00000000E+00-0.00000000E+00
13  1-1.02876745E-02 2.10807759E-02-0.00000000E+00 8.44703714E-02 1.42538519E-01
13  2 1.36785816E-02-0.00000000E+00 7.11265351E-02 1.61527616E-02 3.78956530E-03
13  3 2.43496177E-02-2.31183889E-02-0.00000000E+00-0.00000000E+00-2.60347120E-03
13  4 1.02878070E-02-2.10810246E-02-0.00000000E+00 8.44703261E-02-1.42539186E-01
13  5-1.36778871E-02-0.00000000E+00 7.11263086E-02-1.61531541E-02-3.78956621E-03
13  6-2.43496213E-02 2.31185318E-02-0.00000000E+00-0.00000000E+00-2.60348342E-03
13  7-1.29977411E-04 4.74148781E-03-0.00000000E+00 4.16349870E-01 1.48128505E-01
13  8-7.92638694E-03-0.00000000E+00 2.49887544E-01 9.35417645E-02 3.72213657E-03
13  9-1.25665264E-02 1.50467582E-02-0.00000000E+00-0.00000000E+00 1.21058773E-02
13 10 1.30115499E-04-4.74078069E-03-0.00000000E+00 4.16350557E-01-1.48128658E-01
13 11 7.92372135E-03-0.00000000E+00 2.49887622E-01-9.35423071E-02-3.72155899E-03
13 12 1.25670019E-02-1.50462756E-02-0.00000000E+00-0.00000000E+00 1.21057997E-02
13 13-5.20302446E-02-3.55622512E-02 5.20300938E-02 3.55619905E-02
14  1-6.65236834E-02 1.21811072E-01-0.00000000E+00 4.10629270E-02 2.12459666E-01
14  2 3.42911560E-01-0.00000000E+00 6.10099465E-03 1.15924478E-01 8.89522619E-03
14  3-8.67655383E-03 6.98228322E-03-0.00000000E+00-0.00000000E+00 3.22016923E-02
14  4 6.65236312E-02-1.21812045E-01-0.00000000E+00 4.10621327E-02-2.12459046E-01
14  5-3.42911044E-01-0.00000000E+00 6.10017498E-03-1.15922624E-01-8.89524740E-03
14  6 8.67646183E-03-6.98242588E-03-0.00000000E+00-0.00000000E+00 3.22015036E-02
14  7 1.13081970E-02-2.78932398E-02-0.00000000E+00-1.22057611E-01-2.01013813E-01
14  8-3.49570726E-02-0.00000000E+00-9.98764387E-02-1.38563345E-01 1.18135687E-03
14  9 2.45049449E-03-3.29167814E-03-0.00000000E+00-0.00000000E+00 3.28839415E-04
14 10-1.13083309E-02 2.78923917E-02-0.00000000E+00-1.22056620E-01 2.01013198E-01
14 11 3.49602418E-02-0.00000000E+00-9.98747075E-02 1.38563282E-01-1.18199028E-03
14 12-2.45089383E-03 3.29120382E-03-0.00000000E+00-0.00000000E+00 3.29048424E-04
14 13-1.94492780E-01-1.90877917E-01 1.94493626E-01 1.90877630E-01
15  1-1.36837397E-02 4.96923105E-02 0.00000000E+00-2.81357679E-01-1.41510783E-01
15  2-3.36758892E-02 0.00000000E+00-9.07163143E-02-6.47188587E-02 1.55042903E-03
15  3 1.90579944E-02-2.86164464E-02 0.00000000E+00 0.00000000E+00-4.53032701E-03
15  4-1.36833988E-02 4.96923274E-02 0.00000000E+00 2.81358319E-01-1.41512182E-01
15  5-3.36719841E-02 0.00000000E+00 9.07162798E-02-6.47244172E-02 1.55029181E-03
15  6 1.90585981E-02-2.86161521E-02 0.00000000E+00 0.00000000E+00 4.53061765E-03
15  7-7.83442913E-04 7.68705010E-03 0.00000000E+00 2.44288043E-01 1.33062166E-01
15  8 4.51345630E-03 0.00000000E+00 1.97213833E-01 1.24295551E-01 2.72301631E-03
15  9-8.78515275E-05 6.69683570E-03 0.00000000E+00 0.00000000E+00-3.94918100E-03
15 10-7.83097440E-04 7.68915637E-03 0.00000000E+00-2.44288564E-01 1.33063010E-01
15 11 4.50435498E-03 0.00000000E+00-1.97215410E-01 1.24294686E-01 2.72440474E-03
15 12-8.65934561E-05 6.69794717E-03 0.00000000E+00 0.00000000E+00 3.94892941E-03
15 13-1.80524764E-01-2.33232078E-01-1.80523931E-01-2.33232034E-01
16  1 0.00000000E+00 0.00000000E+00 4.06248907E-01 0.00000000E+00 0.00000000E+00
16  2 0.00000000E+00 2.61980047E-01 0.00000000E+00 0.00000000E+00 0.00000000E+00
16  3 0.00000000E+00 0.00000000E+00-2.85797245E-02 1.00753299E-02 0.00000000E+00
16  4 0.00000000E+00 0.00000000E+00 4.06248825E-01 0.00000000E+00 0.00000000E+00
16  5 0.00000000E+00 2.61981229E-01 0.00000000E+00 0.00000000E+00 0.00000000E+00
16  6 0.00000000E+00 0.00000000E+00 2.85796654E-02 1.00752702E-02 0.00000000E+00
16  7 0.00000000E+00 0.00000000E+00-2.92826140E-01 0.00000000E+00 0.00000000E+00
16  8 0.00000000E+00-2.60060646E-01 0.00000000E+00 0.00000000E+00 0.00000000E+00
16  9 0.00000000E+00 0.00000000E+00-1.28146157E-03 2.54673535E-03 0.00000000E+00
16 10 0.00000000E+00 0.00000000E+00-2.92826258E-01 0.00000000E+00 0.00000000E+00
16 11 0.00000000E+00-2.60061116E-01 0.00000000E+00 0.00000000E+00 0.00000000E+00
16 12 0.00000000E+00 0.00000000E+00 1.28146932E-03 2.54666528E-03 0.00000000E+00
16 13 0.00000000E+00 0.00000000E+00 0.00000000E+00 0.00000000E+00
17  1 0.00000000E+00 0.00000000E+00 5.03952564E-01 0.00000000E+00 0.00000000E+00
17  2 0.00000000E+00 6.20655212E-01 0.00000000E+00 0.00000000E+00 0.00000000E+00
17  3 0.00000000E+00 0.00000000E+00 2.02675318E-02 6.63059759E-03 0.00000000E+00
17  4 0.00000000E+00 0.00000000E+00-5.03953152E-01 0.00000000E+00 0.00000000E+00
17  5 0.00000000E+00-6.20654174E-01 0.00000000E+00 0.00000000E+00 0.00000000E+00
17  6 0.00000000E+00 0.00000000E+00 2.02673624E-02-6.63052280E-03 0.00000000E+00
17  7 0.00000000E+00 0.00000000E+00-2.31657241E-01 0.00000000E+00 0.00000000E+00
17  8 0.00000000E+00-2.72135629E-01 0.00000000E+00 0.00000000E+00 0.00000000E+00
17  9 0.00000000E+00 0.00000000E+00-2.30682062E-03 1.33092373E-02 0.00000000E+00
17 10 0.00000000E+00 0.00000000E+00 2.31657068E-01 0.00000000E+00 0.00000000E+00
17 11 0.00000000E+00 2.72135428E-01 0.00000000E+00 0.00000000E+00 0.00000000E+00
17 12 0.00000000E+00 0.00000000E+00-2.30674447E-03-1.33092128E-02 0.00000000E+00
17 13 0.00000000E+00 0.00000000E+00 0.00000000E+00 0.00000000E+00
18  1 4.45184511E-02-5.00180378E-02 0.00000000E+00-2.23927338E-01-2.70688857E-01
18  2-5.01252489E-01 0.00000000E+00-2.11623133E-01-4.15247014E-01-6.12931226E-03
18  3 1.17244983E-02 7.48115404E-03 0.00000000E+00 0.00000000E+00 2.97183174E-02
18  4 4.45192999E-02-5.00153172E-02 0.00000000E+00 2.23928805E-01-2.70689400E-01
18  5-5.01279933E-01 0.00000000E+00 2.11606012E-01-4.15257188E-01-6.12881802E-03
18  6 1.17257913E-02 7.48206009E-03 0.00000000E+00 0.00000000E+00-2.97179186E-02
18  7 1.02658207E-02-2.31403580E-02 0.00000000E+00 1.21227750E-01 5.08261683E-02
18  8-9.28471471E-02 0.00000000E+00 1.67133062E-01 8.06735208E-02-3.60375626E-03
18  9 1.14896049E-02-4.49417270E-03 0.00000000E+00 0.00000000E+00-2.17165224E-03
18 10 1.02662897E-02-2.31381835E-02 0.00000000E+00-1.21227512E-01 5.08265501E-02
18 11-9.28581659E-02 0.00000000E+00-1.67132641E-01 8.06718788E-02-3.60214697E-03
18 12 1.14911642E-02-4.49312210E-03 0.00000000E+00 0.00000000E+00 2.17147919E-03
18 13 1.08820087E-01 9.21116035E-01 1.08819543E-01 9.21111179E-01
19  1 1.00022941E-01-1.54600569E-01-0.00000000E+00-6.47001141E-02-2.15193670E-01
19  2-1.14170108E+00-0.00000000E+00-7.49213534E-02-5.46203564E-01-1.75602979E-02
19  3 1.30772404E-02 2.31491686E-02-0.00000000E+00-0.00000000E+00-9.37574031E-03
19  4-1.00022494E-01 1.54602303E-01-0.00000000E+00-6.47000321E-02 2.15192277E-01
19  5 1.14170344E+00-0.00000000E+00-7.49245548E-02 5.46197462E-01 1.75603649E-02
19  6-1.30770059E-02-2.31483673E-02-0.00000000E+00-0.00000000E+00-9.37533689E-03
19  7-1.37863040E-02 5.72595156E-02-0.00000000E+00-6.29308868E-03 9.11463520E-02
19  8 2.42238775E-02-0.00000000E+00 2.99938514E-02 1.14806784E-01 3.25843542E-03
19  9 1.30173594E-02 6.61830330E-03-0.00000000E+00-0.00000000E+00 1.31849032E-03
19 10 1.37868351E-02-5.72581441E-02-0.00000000E+00-6.29335450E-03-9.11462307E-02
19 11-2.42347780E-02-0.00000000E+00 2.99916833E-02-1.14809228E-01-3.25715150E-03
19 12-1.30163587E-02-6.61765271E-03-0.00000000E+00-0.00000000E+00 1.31795993E-03
19 13-1.15186042E-01-1.05945324E+00 1.15186969E-01 1.05945651E+00
20  1 2.18331777E-02 3.80626777E-02-0.00000000E+00-1.43598921E-01 6.71349524E-02
20  2-1.21815675E+00-0.00000000E+00-6.63808138E-01 6.25046957E-01-1.31956619E-02
20  3 9.19465755E-03 1.49668989E-02-0.00000000E+00-0.00000000E+00-8.56717793E-03
20  4 2.18337712E-02 3.80688973E-02-0.00000000E+00 1.43600664E-01 6.71351473E-02
20  5-1.21821100E+00-0.00000000E+00 6.63783194E-01 6.25071165E-01-1.31936790E-02
20  6 9.19703905E-03 1.49688165E-02-0.00000000E+00-0.00000000E+00 8.56682138E-03
20  7-8.12778757E-02 3.83631574E-02-0.00000000E+00-5.08090820E-02 7.59288078E-02
20  8 1.23401261E+00-0.00000000E+00-1.61496655E-01 3.14840970E-01-7.05685198E-02
20  9-5.19079132E-02-3.91903637E-02-0.00000000E+00-0.00000000E+00-2.59176772E-02
20 10-8.12786873E-02 3.83600593E-02-0.00000000E+00 5.08090210E-02 7.59279139E-02
20 11 1.23403384E+00-0.00000000E+00 1.61500271E-01 3.14841005E-01-7.05703102E-02
20 12-5.19102065E-02-3.91928431E-02-0.00000000E+00-0.00000000E+00 2.59174050E-02
20 13 6.86374874E-03 2.30982554E-01 6.86374908E-03 2.30993770E-01
21  1 1.88937674E-02 6.12341529E-03-0.00000000E+00 1.08571199E-02-1.37457023E-01
21  2-1.07932159E+00-0.00000000E+00 1.94935600E+00-1.46830308E+00 8.99073370E-03
21  3-2.47052139E-03 1.26776681E-02-0.00000000E+00-0.00000000E+00-3.02245921E-02
21  4-1.88935220E-02-6.12740339E-03-0.00000000E+00 1.08549962E-02 1.37457972E-01
21  5 1.07931858E+00-0.00000000E+00 1.94936247E+00 1.46829585E+00-8.98916442E-03
21  6 2.47189958E-03-1.26769364E-02-0.00000000E+00-0.00000000E+00-3.02240947E-02
21  7 7.67285907E-02 7.65018642E-03-0.00000000E+00-8.14167460E-02-4.67184093E-02
21  8-1.52882037E+00-0.00000000E+00 3.23245875E-02-3.37117903E-01 7.88209195E-02
21  9 6.94851764E-02 3.32669007E-02-0.00000000E+00-0.00000000E+00 1.82432704E-02
21 10-7.67284022E-02-7.65247728E-03-0.00000000E+00-8.14182907E-02 4.67193885E-02
21 11 1.52882083E+00-0.00000000E+00 3.23226612E-02 3.37118307E-01-7.88215782E-02
21 12-6.94854493E-02-3.32679072E-02-0.00000000E+00-0.00000000E+00 1.82432445E-02
21 13 1.20801740E-01-1.32028204E-01-1.20802003E-01 1.32035805E-01
22  1-1.00863136E-01 1.47494148E-02 0.00000000E+00-2.31455572E-01-9.91077288E-02
22  2 5.29497789E+00 0.00000000E+00-3.19220502E+00-1.88193111E+00 2.42011400E-02
22  3-3.24458196E-02 1.88509902E-02 0.00000000E+00 0.00000000E+00-2.46862615E-02
22  4 1.00861076E-01-1.47351745E-02 0.00000000E+00-2.31442368E-01 9.91178289E-02
22  5-5.29497247E+00 0.00000000E+00-3.19223054E+00 1.88193071E+00-2.42082756E-02
22  6 3.24401771E-02-1.88612828E-02 0.00000000E+00 0.00000000E+00-2.46850631E-02
22  7 4.27609844E-02 6.54787966E-03 0.00000000E+00 1.25541152E-01 4.34919144E-02
22  8-1.07495045E+00 0.00000000E+00 5.44351766E-01-7.31570714E-02 5.96717140E-02
22  9 5.69799198E-03 8.53373695E-03 0.00000000E+00 0.00000000E+00 1.64474942E-03
22 10-4.27609780E-02-6.54675891E-03 0.00000000E+00 1.25543788E-01-4.34918342E-02
22 11 1.07495057E+00 0.00000000E+00 5.44363363E-01 7.31634830E-02-5.96717083E-02
22 12-5.69565273E-03-8.53208782E-03 0.00000000E+00 0.00000000E+00 1.64661662E-03
22 13 1.42720840E-01-1.12507792E+00-1.42721414E-01 1.12507173E+00
23  1-0.00000000E+00-0.00000000E+00-6.65730731E-01-0.00000000E+00-0.00000000E+00
23  2-0.00000000E+00 6.95138237E-01-0.00000000E+00-0.00000000E+00-0.00000000E+00
23  3-0.00000000E+00-0.00000000E+00 4.82461425E-02 1.11259089E-02-0.00000000E+00
23  4-0.00000000E+00-0.00000000E+00-6.65732661E-01-0.00000000E+00-0.00000000E+00
23  5-0.00000000E+00 6.95143694E-01-0.00000000E+00-0.00000000E+00-0.00000000E+00
23  6-0.00000000E+00-0.00000000E+00-4.82461966E-02 1.11260448E-02-0.00000000E+00
23  7-0.00000000E+00-0.00000000E+00-3.23985838E-02-0.00000000E+00-0.00000000E+00
23  8-0.00000000E+00-6.99099033E-02-0.00000000E+00-0.00000000E+00-0.00000000E+00
23  9-0.00000000E+00-0.00000000E+00 2.67193995E-02-5.03567365E-02-0.00000000E+00
23 10-0.00000000E+00-0.00000000E+00-3.23990584E-02-0.00000000E+00-0.00000000E+00
23 11-0.00000000E+00-6.99104605E-02-0.00000000E+00-0.00000000E+00-0.00000000E+00
23 12-0.00000000E+00-0.00000000E+00-2.67194572E-02-5.03567154E-02-0.00000000E+00
23 13-0.00000000E+00-0.00000000E+00-0.00000000E+00-0.00000000E+00
24  1 1.48210071E-02 5.18887563E-01 0.00000000E+00-3.96167538E-01 2.27372923E-02
24  2-1.66860420E-01 0.00000000E+00 9.99519346E-01 2.39720998E-01-1.70441584E-02
24  3 1.02282133E-01 4.54376253E-02 0.00000000E+00 0.00000000E+00 4.64743386E-02
24  4 1.48187708E-02 5.18891484E-01 0.00000000E+00 3.96171838E-01 2.27330988E-02
24  5-1.66770876E-01 0.00000000E+00-9.99462600E-01 2.39706049E-01-1.70458079E-02
24  6 1.02277668E-01 4.54355968E-02 0.00000000E+00 0.00000000E+00-4.64735167E-02
24  7-7.92149327E-03 6.92517907E-02 0.00000000E+00-9.38764149E-02-9.46051392E-02
24  8-2.72931378E-02 0.00000000E+00-2.42353358E-01-8.60656288E-03-1.14127996E-02
24  9 5.95123820E-02 1.91182538E-02 0.00000000E+00 0.00000000E+00-2.69519214E-02
24 10-7.92129293E-03 6.92513444E-02 0.00000000E+00 9.38732411E-02-9.46038381E-02
24 11-2.72999471E-02 0.00000000E+00 2.42345205E-01-8.60749443E-03-1.14126323E-02
24 12 5.95118967E-02 1.91172140E-02 0.00000000E+00 0.00000000E+00 2.69519985E-02
24 13 2.55469908E-01-5.09483535E-01 2.55471007E-01-5.09497438E-01
25  1 0.00000000E+00 0.00000000E+00-6.80203665E-01 0.00000000E+00 0.00000000E+00
25  2 0.00000000E+00 1.33543202E+00 0.00000000E+00 0.00000000E+00 0.00000000E+00
25  3 0.00000000E+00 0.00000000E+00-9.78569445E-03 8.53249643E-03 0.00000000E+00
25  4 0.00000000E+00 0.00000000E+00 6.80201555E-01 0.00000000E+00 0.00000000E+00
25  5 0.00000000E+00-1.33542947E+00 0.00000000E+00 0.00000000E+00 0.00000000E+00
25  6 0.00000000E+00 0.00000000E+00-9.78612690E-03-8.53230813E-03 0.00000000E+00
25  7 0.00000000E+00 0.00000000E+00-3.17566204E-02 0.00000000E+00 0.00000000E+00
25  8 0.00000000E+00-1.36958699E-01 0.00000000E+00 0.00000000E+00 0.00000000E+00
25  9 0.00000000E+00 0.00000000E+00 5.65565973E-02-4.94460439E-02 0.00000000E+00
25 10 0.00000000E+00 0.00000000E+00 3.17561414E-02 0.00000000E+00 0.00000000E+00
25 11 0.00000000E+00 1.36958675E-01 0.00000000E+00 0.00000000E+00 0.00000000E+00
25 12 0.00000000E+00 0.00000000E+00 5.65565539E-02 4.94458961E-02 0.00000000E+00
25 13 0.00000000E+00 0.00000000E+00 0.00000000E+00 0.00000000E+00
26  1 3.71532853E-02 3.04763794E-01-0.00000000E+00-7.43878620E-02 5.71235981E-01
26  2-6.91991047E-01-0.00000000E+00-9.93382383E-02-7.58941312E-01-4.22544240E-02
26  3 4.07522686E-02 6.38362713E-02-0.00000000E+00-0.00000000E+00-1.84850404E-01
26  4 3.71509921E-02 3.04773567E-01-0.00000000E+00 7.44279210E-02 5.71218781E-01
26  5-6.92051902E-01-0.00000000E+00 9.92720562E-02-7.58876758E-01-4.22513644E-02
26  6 4.07437225E-02 6.38361700E-02-0.00000000E+00-0.00000000E+00 1.84850688E-01
26  7-1.78081815E-02 3.81104786E-03-0.00000000E+00-1.17649654E-01 1.75257007E-01
26  8-3.03683461E-02-0.00000000E+00 3.98496484E-02 2.09714781E-02 4.16345935E-03
26  9-6.31318869E-02-6.40122350E-02-0.00000000E+00-0.00000000E+00 1.05112918E-01
26 10-1.78084382E-02 3.80734744E-03-0.00000000E+00 1.17644635E-01 1.75257520E-01
26 11-3.03450939E-02-0.00000000E+00-3.98451159E-02 2.09745624E-02 4.16263458E-03
26 12-6.31282920E-02-6.40176468E-02-0.00000000E+00-0.00000000E+00-1.05110194E-01
26 13-3.15227079E-01 8.99333038E-01-3.15231008E-01 8.99371447E-01
27  1 2.46672685E-02-4.38682072E-01 0.00000000E+00-3.41807750E-01-2.76439559E-01
27  2 1.05471996E+00 0.00000000E+00 8.20750257E-01 4.19795037E-01-3.24331940E-02
27  3-6.33102739E-02-2.94796380E-02 0.00000000E+00 0.00000000E+00-1.22741597E-01
27  4 2.46646598E-02-4.38694706E-01 0.00000000E+00 3.41840708E-01-2.76461534E-01
27  5 1.05475471E+00 0.00000000E+00-8.20779503E-01 4.19868955E-01-3.24320797E-02
27  6-6.33206550E-02-2.94807931E-02 0.00000000E+00 0.00000000E+00 1.22741303E-01
27  7-1.60756093E-03 8.08176337E-02 0.00000000E+00-2.59019423E-01 1.19186786E-02
27  8-3.35232372E-01 0.00000000E+00 2.84691675E-02-1.24261284E-01 6.06353805E-02
27  9 2.54836718E-02-5.14475468E-02 0.00000000E+00 0.00000000E+00 2.46881678E-02
27 10-1.60784756E-03 8.08159225E-02 0.00000000E+00 2.59013521E-01 1.19196574E-02
27 11-3.35215303E-01 0.00000000E+00-2.84661854E-02-1.24258415E-01 6.06353008E-02
27 12 2.54870924E-02-5.14516799E-02 0.00000000E+00 0.00000000E+00-2.46851144E-02
27 13-4.30976606E-01-2.43716873E-01-4.30990612E-01-2.43659845E-01
28  1 2.58863565E-02 8.61635836E-02-0.00000000E+00 6.69364086E-01 4.04639556E-01
28  2 5.41674317E-01-0.00000000E+00-1.22423237E+00-1.47155525E+00-2.48540042E-02
28  3 1.43945752E-01-1.59132582E-02-0.00000000E+00-0.00000000E+00-5.25439494E-03
28  4-2.58902621E-02-8.61567959E-02-0.00000000E+00 6.69343256E-01-4.04650254E-01
28  5-5.41690460E-01-0.00000000E+00-1.22419353E+00 1.47156889E+00 2.48552952E-02
28  6-1.43947802E-01 1.59076917E-02-0.00000000E+00-0.00000000E+00-5.26917565E-03
28  7 5.05435221E-03 1.99535064E-02-0.00000000E+00-7.54841676E-02-1.14799550E-02
28  8-3.32330410E-01-0.00000000E+00 7.80936071E-02-2.56542617E-02-1.79274418E-03
28  9-8.17459838E-02 8.53809675E-02-0.00000000E+00-0.00000000E+00 4.39348004E-02
28 10-5.05337096E-03-1.99582410E-02-0.00000000E+00-7.55040623E-02 1.14720261E-02
28 11 3.32350372E-01-0.00000000E+00 7.80993912E-02 2.56622431E-02 1.78947215E-03
28 12 8.17479153E-02-8.53748806E-02-0.00000000E+00-0.00000000E+00 4.39415332E-02