 $CONTRL 
   SCFTYP=ROHF 
   RUNTYP=ENERGY 
   DFTTYP=B3LYP 
   ICHARG=0 
   TDDFT=MRSF
   MAXIT=200 
   MULT=3 
 $END
 $SCF
   COUPLE=.TRUE. ALPHA(1)= 0.5,0.5, 0.5  BETA(1) = 0.5,0.5, 0.5
   DIRSCF=.T. DIIS=.T. SOSCF=.F. DAMP=.T. SHIFT=.T. 
   MOM=.T.
 $END
 $DFT
   SG1=.T.
 $END
 $TDDFT
   NSTATE=10 IROOT=1 MULT=1
 $END
 $GUESS
   GUESS=MOREAD NORB=64
 $END
 $BASIS GBASIS=N31 NGAUSS=6 NDFUNC=1 $END
 $SYSTEM TIMLIM=999999100 MWORDS=500 MEMDDI=1000 $END
 $DATA  
cis-DFE Gas RO-SF-CIS/3-21G S0
 C1
 C    6.0  -0.0000000000   0.6505243427  -0.0165521420
 C    6.0   0.0000000000  -0.6505243428  -0.0165521421
 F    9.0  -0.0000000000   1.2156446665  -0.9192030778
 F    9.0   0.0000000000  -1.2156446664  -0.9192030780
 H    1.0  -0.0000000000  -1.3965430797   1.1178852200
 H    1.0   0.0000000000   1.3965430798   1.1178852199
 $END

--- OPEN SHELL ORBITALS --- GENERATED AT 18:18:23 23-MAR-2021    
cis-DFE Gas RO-SF-CIS/3-21G S0                                                  
E(RO-B3LYP)=     -276.4501093252, E(NUC)=  128.6191355931,   16 ITERS
 $VEC   
 1  1 3.65688042E-05 2.34180933E-04 0.00000000E+00-1.94119327E-04 8.02241319E-05
 1  2-6.65351542E-04 0.00000000E+00-1.19249492E-03 1.43812507E-03 1.37642207E-05
 1  3-2.28019066E-04-7.03239484E-04 0.00000000E+00 0.00000000E+00 7.71724314E-04
 1  4-3.51456389E-05-2.26012263E-04 0.00000000E+00-1.93334460E-04-7.78482152E-05
 1  5 6.42824644E-04 0.00000000E+00-1.18264541E-03-1.42496335E-03-1.39274463E-05
 1  6 2.23617525E-04 6.91872959E-04 0.00000000E+00 0.00000000E+00 7.64879543E-04
 1  7 7.08513278E-01 1.35734379E-02 0.00000000E+00-5.98803701E-04 9.39711839E-04
 1  8 1.45128778E-02 0.00000000E+00-1.89470226E-04 4.85747803E-04-6.42517455E-03
 1  9-6.35813868E-03-6.17184413E-03 0.00000000E+00 0.00000000E+00-1.20769062E-04
 1 10-6.95322534E-01-1.33146670E-02 0.00000000E+00-5.87588280E-04-9.23789381E-04
 1 11-1.42712936E-02 0.00000000E+00-1.88045069E-04-4.81180238E-04 6.31138986E-03
 1 12 6.24447753E-03 6.06006361E-03 0.00000000E+00 0.00000000E+00-1.19067518E-04
 1 13 7.83826120E-05 2.73669786E-05-7.81139387E-05-2.89402095E-05
 2  1 7.54277807E-05 4.32729379E-04 0.00000000E+00-3.98241948E-05 1.25725963E-04
 2  2-1.19121723E-03 0.00000000E+00-5.12417627E-04 6.86327446E-04-8.84261958E-06
 2  3-2.32030058E-04-5.98516298E-04 0.00000000E+00 0.00000000E+00 3.57053582E-04
 2  4 7.61000902E-05 4.37044998E-04 0.00000000E+00 4.34657434E-05 1.27212212E-04
 2  5-1.20357339E-03 0.00000000E+00 5.34738414E-04 7.13283741E-04-8.58219525E-06
 2  6-2.36279469E-04-6.11621142E-04 0.00000000E+00 0.00000000E+00-3.71491670E-04
 2  7 6.95389155E-01 1.36467174E-02 0.00000000E+00-5.91332262E-04 8.38761558E-04
 2  8 1.27147387E-02 0.00000000E+00-7.38168596E-05 2.37815766E-04-5.99383997E-03
 2  9-5.98754295E-03-5.88972957E-03 0.00000000E+00 0.00000000E+00-8.94098064E-05
 2 10 7.08578655E-01 1.38992873E-02 0.00000000E+00 6.02476480E-04 8.56266889E-04
 2 11 1.29853783E-02 0.00000000E+00 7.73763930E-05 2.46922783E-04-6.11354965E-03
 2 12-6.10600133E-03-6.00469302E-03 0.00000000E+00 0.00000000E+00 9.16651745E-05
 2 13 1.34812090E-05-8.40195065E-05 1.49532287E-05-8.34839742E-05
 3  1 7.01947171E-01 3.76113148E-02 0.00000000E+00 1.81178773E-03-3.20976567E-03
 3  2-1.83429355E-03 0.00000000E+00 6.66757498E-04-8.54291849E-04-7.99014614E-03
 3  3-6.90041547E-03-6.59009025E-03 0.00000000E+00 0.00000000E+00-1.05799320E-03
 3  4 7.01462955E-01 3.75845247E-02 0.00000000E+00-1.81099942E-03-3.20749899E-03
 3  5-1.82480620E-03 0.00000000E+00-6.62115512E-04-8.53736433E-04-7.98503110E-03
 3  6-6.89596891E-03-6.58595149E-03 0.00000000E+00 0.00000000E+00 1.05710774E-03
 3  7-2.25949267E-04 1.21674260E-03 0.00000000E+00-1.53522579E-04 2.85644338E-04
 3  8-5.91156261E-03 0.00000000E+00 1.69283529E-03-3.17080689E-03 8.57214777E-04
 3  9 4.95385614E-04-2.25355232E-04 0.00000000E+00 0.00000000E+00 5.93997145E-04
 3 10-2.25813804E-04 1.21584329E-03 0.00000000E+00 1.53518005E-04 2.85507347E-04
 3 11-5.90722217E-03 0.00000000E+00-1.69196665E-03-3.16842591E-03 8.56456325E-04
 3 12 4.95026368E-04-2.25218558E-04 0.00000000E+00 0.00000000E+00-5.93570764E-04
 3 13-1.97747205E-04 7.36946382E-04-1.97727985E-04 7.37072367E-04
 4  1-7.01923382E-01-3.86100524E-02 0.00000000E+00-1.15804894E-03 3.41772590E-03
 4  2 7.02599729E-03 0.00000000E+00-3.21358220E-03 2.54121314E-03 7.68557719E-03
 4  3 6.37407778E-03 6.03710181E-03 0.00000000E+00 0.00000000E+00 1.22187916E-03
 4  4 7.02407236E-01 3.86360091E-02 0.00000000E+00-1.15927153E-03-3.41993961E-03
 4  5-7.02731475E-03 0.00000000E+00-3.21413285E-03-2.54173132E-03-7.69106637E-03
 4  6-6.37883050E-03-6.04164578E-03 0.00000000E+00 0.00000000E+00 1.22261394E-03
 4  7 1.08346705E-04-1.82610429E-03 0.00000000E+00 1.05073291E-04-1.70507677E-04
 4  8 8.61826467E-03 0.00000000E+00-2.02325662E-03 3.52561167E-03-1.36038748E-03
 4  9-8.29235207E-04-1.58980644E-04 0.00000000E+00 0.00000000E+00-7.35621343E-04
 4 10-1.08513565E-04 1.82688428E-03 0.00000000E+00 1.05164552E-04 1.70706347E-04
 4 11-8.62213563E-03 0.00000000E+00-2.02434787E-03-3.52780246E-03 1.36093296E-03
 4 12 8.29547546E-04 1.58770379E-04 0.00000000E+00 0.00000000E+00-7.36024883E-04
 4 13 7.49985485E-05 8.24029318E-04-7.51450381E-05-8.23551610E-04
 5  1-7.70674270E-02 1.39807174E-01 0.00000000E+00 5.69695135E-02-1.27573071E-01
 5  2 3.97778494E-02 0.00000000E+00 1.00918423E-03 2.09586829E-03-1.96531166E-02
 5  3-2.80458238E-03 1.62754838E-02 0.00000000E+00 0.00000000E+00-2.10766065E-02
 5  4-7.70670423E-02 1.39806754E-01 0.00000000E+00-5.69689886E-02-1.27572287E-01
 5  5 3.97769385E-02 0.00000000E+00-1.00919727E-03 2.09643476E-03-1.96531550E-02
 5  6-2.80469566E-03 1.62751657E-02 0.00000000E+00 0.00000000E+00 2.10764729E-02
 5  7-1.47428641E-01 3.37104397E-01 0.00000000E+00-6.82783516E-02 9.62664060E-02
 5  8 2.09814885E-01 0.00000000E+00-1.07325654E-02 5.98984304E-03 1.02337473E-02
 5  9 1.49187220E-02 1.51180384E-02 0.00000000E+00 0.00000000E+00-3.77154681E-03
 5 10-1.47427790E-01 3.37101807E-01 0.00000000E+00 6.82779327E-02 9.62657663E-02
 5 11 2.09815223E-01 0.00000000E+00 1.07326413E-02 5.98991538E-03 1.02333275E-02
 5 12 1.49183060E-02 1.51175468E-02 0.00000000E+00 0.00000000E+00 3.77150579E-03
 5 13 5.09572108E-03-5.12997606E-03 5.09575983E-03-5.12989771E-03
 6  1 6.91397150E-02-1.18502997E-01 0.00000000E+00-9.05445168E-02 1.22179503E-01
 6  2-3.63340606E-02 0.00000000E+00-1.36970177E-03-2.05154657E-02 1.85074677E-02
 6  3 1.40371219E-02-1.81483426E-02 0.00000000E+00 0.00000000E+00 2.52824637E-02
 6  4-6.91401683E-02 1.18504261E-01 0.00000000E+00-9.05449522E-02-1.22180489E-01
 6  5 3.63349401E-02 0.00000000E+00-1.37004014E-03 2.05151669E-02-1.85076271E-02
 6  6-1.40371592E-02 1.81485241E-02 0.00000000E+00 0.00000000E+00 2.52826395E-02
 6  7 1.53001217E-01-3.44984811E-01 0.00000000E+00 6.15875151E-02-9.97981607E-02
 6  8-2.39464615E-01 0.00000000E+00 8.31587317E-03-1.04415377E-02-8.61929567E-03
 6  9-1.07502808E-02-1.49290791E-02 0.00000000E+00 0.00000000E+00 4.12805853E-03
 6 10-1.53002017E-01 3.44987487E-01 0.00000000E+00 6.15879339E-02 9.97987594E-02
 6 11 2.39463655E-01 0.00000000E+00 8.31565478E-03 1.04410824E-02 8.61986456E-03
 6 12 1.07507718E-02 1.49295068E-02 0.00000000E+00 0.00000000E+00 4.12795577E-03
 6 13 3.71008947E-03-8.32393982E-03-3.71008158E-03 8.32387112E-03
 7  1-1.30869786E-01 2.50105304E-01 0.00000000E+00-1.98637452E-01-2.51669765E-02
 7  2 1.40208709E-01 0.00000000E+00-2.62101997E-02 2.03440735E-02-1.29890993E-02
 7  3 4.45638455E-03-7.05648435E-03 0.00000000E+00 0.00000000E+00 1.09894233E-02
 7  4-1.30869860E-01 2.50105763E-01 0.00000000E+00 1.98637549E-01-2.51674488E-02
 7  5 1.40212738E-01 0.00000000E+00 2.62101663E-02 2.03438256E-02-1.29895097E-02
 7  6 4.45632502E-03-7.05673875E-03 0.00000000E+00 0.00000000E+00-1.09893017E-02
 7  7 6.49313179E-02-1.50465222E-01 0.00000000E+00-1.95320993E-01 9.68341164E-02
 7  8-1.86947429E-01 0.00000000E+00-1.16565177E-01 6.07830935E-02-7.30769099E-03
 7  9 8.87644255E-03-6.99608898E-04 0.00000000E+00 0.00000000E+00-1.42316162E-02
 7 10 6.49314785E-02-1.50464453E-01 0.00000000E+00 1.95320943E-01 9.68340926E-02
 7 11-1.86950866E-01 0.00000000E+00 1.16564764E-01 6.07822016E-02-7.30712120E-03
 7 12 8.87700646E-03-6.99283479E-04 0.00000000E+00 0.00000000E+00 1.42314597E-02
 7 13 2.50434955E-02-3.89364519E-03 2.50435208E-02-3.89273325E-03
 8  1-7.81708547E-02 1.55247881E-01 0.00000000E+00 1.20265304E-01-1.01062152E-01
 8  2 1.01562733E-01 0.00000000E+00-9.83749203E-03 5.57558896E-02-1.44656441E-02
 8  3-1.32194706E-02 5.30284180E-03 0.00000000E+00 0.00000000E+00-1.39297240E-02
 8  4 7.81708704E-02-1.55248373E-01 0.00000000E+00 1.20264390E-01 1.01061833E-01
 8  5-1.01562394E-01 0.00000000E+00-9.83767832E-03-5.57560119E-02 1.44656127E-02
 8  6 1.32194643E-02-5.30290163E-03 0.00000000E+00 0.00000000E+00-1.39296872E-02
 8  7 6.55742396E-02-1.44735957E-01 0.00000000E+00-1.69297155E-01 3.59323584E-01
 8  8-2.44130127E-01 0.00000000E+00-8.25268785E-02 1.80104381E-01-6.19843186E-03
 8  9-1.87110115E-03 1.30792645E-02 0.00000000E+00 0.00000000E+00-1.06593694E-02
 8 10-6.55740402E-02 1.44735917E-01 0.00000000E+00-1.69297024E-01-3.59322220E-01
 8 11 2.44128608E-01 0.00000000E+00-8.25268209E-02-1.80103568E-01 6.19860225E-03
 8 12 1.87134169E-03-1.30789006E-02 0.00000000E+00 0.00000000E+00-1.06592815E-02
 8 13-2.54006112E-02 3.62076805E-03 2.54006372E-02-3.62082706E-03
 9  1-1.42925889E-02 4.57160118E-02 0.00000000E+00 2.52232950E-01-6.00860488E-02
 9  2 3.51641978E-03 0.00000000E+00 3.45706132E-02 1.76441775E-02-6.79358058E-03
 9  3 1.49423406E-03 2.62736628E-03 0.00000000E+00 0.00000000E+00-2.14892339E-02
 9  4-1.42928596E-02 4.57167550E-02 0.00000000E+00-2.52233663E-01-6.00864207E-02
 9  5 3.51885166E-03 0.00000000E+00-3.45694818E-02 1.76422085E-02-6.79375640E-03
 9  6 1.49393678E-03 2.62733090E-03 0.00000000E+00 0.00000000E+00 2.14892789E-02
 9  7 3.71311609E-02-6.03988052E-02 0.00000000E+00 5.40425591E-02 3.89872276E-01
 9  8-2.03460490E-01 0.00000000E+00 6.19609703E-02 1.97151415E-01 5.96396438E-03
 9  9-7.35188170E-03 2.66107285E-02 0.00000000E+00 0.00000000E+00-1.11452794E-03
 9 10 3.71314996E-02-6.03986170E-02 0.00000000E+00-5.40416837E-02 3.89873430E-01
 9 11-2.03464088E-01 0.00000000E+00-6.19608823E-02 1.97151839E-01 5.96439044E-03
 9 12-7.35140348E-03 2.66112122E-02 0.00000000E+00 0.00000000E+00 1.11448009E-03
 9 13 2.71765567E-02 9.44958725E-03 2.71764405E-02 9.44876541E-03
10  1 0.00000000E+00 0.00000000E+00 1.93671591E-01 0.00000000E+00 0.00000000E+00
10  2 0.00000000E+00 6.07595670E-02 0.00000000E+00 0.00000000E+00 0.00000000E+00
10  3 0.00000000E+00 0.00000000E+00 4.31629546E-03-2.38434447E-02 0.00000000E+00
10  4 0.00000000E+00 0.00000000E+00 1.93671090E-01 0.00000000E+00 0.00000000E+00
10  5 0.00000000E+00 6.07596223E-02 0.00000000E+00 0.00000000E+00 0.00000000E+00
10  6 0.00000000E+00 0.00000000E+00-4.31626370E-03-2.38433969E-02 0.00000000E+00
10  7 0.00000000E+00 0.00000000E+00 4.10399246E-01 0.00000000E+00 0.00000000E+00
10  8 0.00000000E+00 2.52168179E-01 0.00000000E+00 0.00000000E+00 0.00000000E+00
10  9 0.00000000E+00 0.00000000E+00-1.46846473E-02 1.77977893E-02 0.00000000E+00
10 10 0.00000000E+00 0.00000000E+00 4.10397988E-01 0.00000000E+00 0.00000000E+00
10 11 0.00000000E+00 2.52167341E-01 0.00000000E+00 0.00000000E+00 0.00000000E+00
10 12 0.00000000E+00 0.00000000E+00 1.46845516E-02 1.77977084E-02 0.00000000E+00
10 13 0.00000000E+00 0.00000000E+00 0.00000000E+00 0.00000000E+00
11  1-6.61119010E-02 1.20017892E-01 0.00000000E+00-8.37809821E-02 2.52895216E-01
11  2 1.55775993E-01 0.00000000E+00 1.38900561E-02 6.01259473E-02 2.72249392E-03
11  3 1.88530845E-02-2.43680626E-02 0.00000000E+00 0.00000000E+00 3.48859755E-03
11  4-6.61118954E-02 1.20017278E-01 0.00000000E+00 8.37812525E-02 2.52894461E-01
11  5 1.55781391E-01 0.00000000E+00-1.38884432E-02 6.01280681E-02 2.72221855E-03
11  6 1.88528351E-02-2.43682497E-02 0.00000000E+00 0.00000000E+00-3.48861317E-03
11  7-1.34783908E-02 2.35788965E-02 0.00000000E+00 3.10000467E-01-4.34248385E-02
11  8 8.97638138E-02 0.00000000E+00 1.72394382E-01 3.79525774E-03 1.85856376E-03
11  9-1.33575769E-02 6.34321859E-03 0.00000000E+00 0.00000000E+00 6.77148684E-03
11 10-1.34784024E-02 2.35792941E-02 0.00000000E+00-3.09999731E-01-4.34255228E-02
11 11 8.97633777E-02 0.00000000E+00-1.72394236E-01 3.79443635E-03 1.85881786E-03
11 12-1.33573676E-02 6.34332686E-03 0.00000000E+00 0.00000000E+00-6.77153302E-03
11 13 8.38112621E-02 4.98780726E-02 8.38115833E-02 4.98798936E-02
12  1 0.00000000E+00 0.00000000E+00-1.48482508E-01 0.00000000E+00 0.00000000E+00
12  2 0.00000000E+00-5.76400624E-02 0.00000000E+00 0.00000000E+00 0.00000000E+00
12  3 0.00000000E+00 0.00000000E+00-1.56470214E-02 2.25455760E-02 0.00000000E+00
12  4 0.00000000E+00 0.00000000E+00 1.48483106E-01 0.00000000E+00 0.00000000E+00
12  5 0.00000000E+00 5.76401850E-02 0.00000000E+00 0.00000000E+00 0.00000000E+00
12  6 0.00000000E+00 0.00000000E+00-1.56470087E-02-2.25456346E-02 0.00000000E+00
12  7 0.00000000E+00 0.00000000E+00-4.49129549E-01 0.00000000E+00 0.00000000E+00
12  8 0.00000000E+00-2.76518619E-01 0.00000000E+00 0.00000000E+00 0.00000000E+00
12  9 0.00000000E+00 0.00000000E+00 1.19597760E-02-1.83797124E-02 0.00000000E+00
12 10 0.00000000E+00 0.00000000E+00 4.49130706E-01 0.00000000E+00 0.00000000E+00
12 11 0.00000000E+00 2.76519339E-01 0.00000000E+00 0.00000000E+00 0.00000000E+00
12 12 0.00000000E+00 0.00000000E+00 1.19598568E-02 1.83797559E-02 0.00000000E+00
12 13 0.00000000E+00 0.00000000E+00 0.00000000E+00 0.00000000E+00
13  1-1.20452235E-02 2.52616398E-02 0.00000000E+00 9.17691812E-02 1.47518316E-01
13  2-2.61195079E-02 0.00000000E+00 9.91670416E-02 1.24914791E-02 2.22863828E-03
13  3 2.40387407E-02-2.22785683E-02 0.00000000E+00 0.00000000E+00-2.85964222E-03
13  4 1.20454024E-02-2.52620155E-02 0.00000000E+00 9.17690643E-02-1.47519117E-01
13  5 2.61202175E-02 0.00000000E+00 9.91667974E-02-1.24918962E-02-2.22861348E-03
13  6-2.40387318E-02 2.22787595E-02 0.00000000E+00 0.00000000E+00-2.85965678E-03
13  7 3.27013067E-04 1.34087798E-03 0.00000000E+00 4.10965205E-01 1.47724159E-01
13  8-8.96798515E-03 0.00000000E+00 2.40076679E-01 9.30614787E-02 2.69326696E-03
13  9-1.25118665E-02 1.49598292E-02 0.00000000E+00 0.00000000E+00 1.15492152E-02
13 10-3.26874351E-04-1.34015658E-03 0.00000000E+00 4.10965961E-01-1.47724293E-01
13 11 8.96523309E-03 0.00000000E+00 2.40076761E-01-9.30620461E-02-2.69268270E-03
13 12 1.25123306E-02-1.49593483E-02 0.00000000E+00 0.00000000E+00 1.15491250E-02
13 13-6.03874739E-02-4.35773463E-02 6.03872832E-02 4.35769797E-02
14  1-6.26529195E-02 1.15593352E-01 0.00000000E+00 3.92146274E-02 2.00253019E-01
14  2 2.77356161E-01 0.00000000E+00 3.24548813E-03 8.68913552E-02 2.19426144E-03
14  3-7.40358843E-03 8.63907547E-03 0.00000000E+00 0.00000000E+00 2.98571192E-02
14  4 6.26529133E-02-1.15594367E-01 0.00000000E+00 3.92138730E-02-2.00252485E-01
14  5-2.77355947E-01 0.00000000E+00 3.24473663E-03-8.68894857E-02-2.19426104E-03
14  6 7.40351207E-03-8.63920734E-03 0.00000000E+00 0.00000000E+00 2.98569373E-02
14  7 1.05676851E-02-2.97858101E-02 0.00000000E+00-1.36911039E-01-1.96377773E-01
14  8-2.61829725E-02 0.00000000E+00-1.08006471E-01-1.26541386E-01-2.83407522E-05
14  9 1.71467178E-03-2.94930834E-03 0.00000000E+00 0.00000000E+00-5.70612105E-04
14 10-1.05678333E-02 2.97849482E-02 0.00000000E+00-1.36909983E-01 1.96377204E-01
14 11 2.61863510E-02 0.00000000E+00-1.08004702E-01 1.26541387E-01 2.76782543E-05
14 12-1.71508861E-03 2.94881826E-03 0.00000000E+00 0.00000000E+00-5.70400867E-04
14 13-2.12398337E-01-2.29909055E-01 2.12399238E-01 2.29908738E-01
15  1-1.74092257E-02 5.40967863E-02 0.00000000E+00-2.73147249E-01-1.27898212E-01
15  2 8.26142107E-04 0.00000000E+00-6.65417020E-02-4.38780600E-02 1.36776477E-03
15  3 1.76160341E-02-2.71587024E-02 0.00000000E+00 0.00000000E+00-3.14776016E-03
15  4-1.74088951E-02 5.40969806E-02 0.00000000E+00 2.73147791E-01-1.27899562E-01
15  5 8.28930272E-04 0.00000000E+00 6.65408802E-02-4.38834677E-02 1.36763203E-03
15  6 1.76164923E-02-2.71584306E-02 0.00000000E+00 0.00000000E+00 3.14801970E-03
15  7-8.51728871E-04 7.51408816E-03 0.00000000E+00 2.52223756E-01 1.34616637E-01
15  8 3.81054806E-03 0.00000000E+00 1.91272315E-01 1.19815014E-01 2.61239080E-03
15  9 3.03683355E-04 6.27469856E-03 0.00000000E+00 0.00000000E+00-4.72471864E-03
15 10-8.51382180E-04 7.51613739E-03 0.00000000E+00-2.52224323E-01 1.34617435E-01
15 11 3.80157755E-03 0.00000000E+00-1.91273826E-01 1.19814096E-01 2.61375704E-03
15 12 3.04892424E-04 6.27578991E-03 0.00000000E+00 0.00000000E+00 4.72445731E-03
15 13-1.92275283E-01-2.66218357E-01-1.92274403E-01-2.66218266E-01
16  1 0.00000000E+00 0.00000000E+00 4.12732939E-01 0.00000000E+00 0.00000000E+00
16  2 0.00000000E+00 2.68128780E-01 0.00000000E+00 0.00000000E+00 0.00000000E+00
16  3 0.00000000E+00 0.00000000E+00-2.86040221E-02 7.45925727E-03 0.00000000E+00
16  4 0.00000000E+00 0.00000000E+00 4.12732615E-01 0.00000000E+00 0.00000000E+00
16  5 0.00000000E+00 2.68130003E-01 0.00000000E+00 0.00000000E+00 0.00000000E+00
16  6 0.00000000E+00 0.00000000E+00 2.86039632E-02 7.45919951E-03 0.00000000E+00
16  7 0.00000000E+00 0.00000000E+00-2.74749167E-01 0.00000000E+00 0.00000000E+00
16  8 0.00000000E+00-2.48497423E-01 0.00000000E+00 0.00000000E+00 0.00000000E+00
16  9 0.00000000E+00 0.00000000E+00-2.29536524E-03 2.85780698E-03 0.00000000E+00
16 10 0.00000000E+00 0.00000000E+00-2.74749158E-01 0.00000000E+00 0.00000000E+00
16 11 0.00000000E+00-2.48497813E-01 0.00000000E+00 0.00000000E+00 0.00000000E+00
16 12 0.00000000E+00 0.00000000E+00 2.29537799E-03 2.85773663E-03 0.00000000E+00
16 13 0.00000000E+00 0.00000000E+00 0.00000000E+00 0.00000000E+00
17  1 0.00000000E+00 0.00000000E+00 5.01724402E-01 0.00000000E+00 0.00000000E+00
17  2 0.00000000E+00 6.25777538E-01 0.00000000E+00 0.00000000E+00 0.00000000E+00
17  3 0.00000000E+00 0.00000000E+00 2.05376086E-02 4.59683937E-03 0.00000000E+00
17  4 0.00000000E+00 0.00000000E+00-5.01725129E-01 0.00000000E+00 0.00000000E+00
17  5 0.00000000E+00-6.25776594E-01 0.00000000E+00 0.00000000E+00 0.00000000E+00
17  6 0.00000000E+00 0.00000000E+00 2.05374262E-02-4.59676094E-03 0.00000000E+00
17  7 0.00000000E+00 0.00000000E+00-2.30609316E-01 0.00000000E+00 0.00000000E+00
17  8 0.00000000E+00-2.67976019E-01 0.00000000E+00 0.00000000E+00 0.00000000E+00
17  9 0.00000000E+00 0.00000000E+00-1.92100572E-03 1.39555255E-02 0.00000000E+00
17 10 0.00000000E+00 0.00000000E+00 2.30609176E-01 0.00000000E+00 0.00000000E+00
17 11 0.00000000E+00 2.67975864E-01 0.00000000E+00 0.00000000E+00 0.00000000E+00
17 12 0.00000000E+00 0.00000000E+00-1.92092875E-03-1.39555062E-02 0.00000000E+00
17 13 0.00000000E+00 0.00000000E+00 0.00000000E+00 0.00000000E+00
18  1 4.53740997E-02-5.58540971E-02 0.00000000E+00-2.31736141E-01-2.92034249E-01
18  2-4.53654739E-01 0.00000000E+00-1.82126178E-01-4.09960317E-01-1.23833694E-03
18  3 9.99638304E-03 5.09300739E-03 0.00000000E+00 0.00000000E+00 3.10673620E-02
18  4 4.53748928E-02-5.58513296E-02 0.00000000E+00 2.31737474E-01-2.92034769E-01
18  5-4.53680339E-01 0.00000000E+00 1.82109756E-01-4.09971065E-01-1.23786649E-03
18  6 9.99743459E-03 5.09384890E-03 0.00000000E+00 0.00000000E+00-3.10669688E-02
18  7 1.24249743E-02-2.37605664E-02 0.00000000E+00 1.36328093E-01 5.36298350E-02
18  8-1.21509239E-01 0.00000000E+00 1.72655906E-01 7.24751026E-02-1.37522262E-03
18  9 1.43584483E-02-3.18396846E-03 0.00000000E+00 0.00000000E+00-1.82290594E-03
18 10 1.24254819E-02-2.37583163E-02 0.00000000E+00-1.36327874E-01 5.36302021E-02
18 11-1.21520960E-01 0.00000000E+00-1.72655649E-01 7.24734405E-02-1.37354016E-03
18 12 1.43600659E-02-3.18280459E-03 0.00000000E+00 0.00000000E+00 1.82271379E-03
18 13 1.20792569E-01 8.69320117E-01 1.20792086E-01 8.69315475E-01
19  1 1.02723842E-01-1.65279435E-01 0.00000000E+00-8.48707678E-02-2.43905814E-01
19  2-1.04524540E+00 0.00000000E+00-1.16683580E-01-5.57451406E-01-7.71972993E-03
19  3 9.41104423E-03 2.02272738E-02 0.00000000E+00 0.00000000E+00-1.16808488E-02
19  4-1.02723479E-01 1.65281481E-01 0.00000000E+00-8.48709099E-02 2.43904491E-01
19  5 1.04524913E+00 0.00000000E+00-1.16687319E-01 5.57444786E-01 7.71966664E-03
19  6-9.41093615E-03-2.02266142E-02 0.00000000E+00 0.00000000E+00-1.16803785E-02
19  7-1.34540074E-02 6.10377348E-02 0.00000000E+00 4.05239233E-03 9.92048253E-02
19  8 3.52221862E-03 0.00000000E+00 4.72971151E-02 1.10482046E-01 3.81742429E-03
19  9 1.47642037E-02 5.48166250E-03 0.00000000E+00 0.00000000E+00 1.69759256E-03
19 10 1.34546279E-02-6.10363801E-02 0.00000000E+00 4.05204185E-03-9.92047671E-02
19 11-3.53439813E-03 0.00000000E+00 4.72947930E-02-1.10484808E-01-3.81601833E-03
19 12-1.47631160E-02-5.48096630E-03 0.00000000E+00 0.00000000E+00 1.69702462E-03
19 13-1.18991177E-01-1.03530627E+00 1.18992061E-01 1.03530885E+00
20  1-2.53819140E-02-3.18073638E-02 0.00000000E+00 1.56050899E-01-6.04567456E-02
20  2 1.21613562E+00 0.00000000E+00 6.55333967E-01-6.06818899E-01 9.08732092E-03
20  3-6.59180575E-03-1.37647391E-02 0.00000000E+00 0.00000000E+00 1.02949363E-02
20  4-2.53825469E-02-3.18138537E-02 0.00000000E+00-1.56052390E-01-6.04571435E-02
20  5 1.21619804E+00 0.00000000E+00-6.55301880E-01-6.06843298E-01 9.08517157E-03
20  6-6.59398438E-03-1.37668424E-02 0.00000000E+00 0.00000000E+00-1.02947233E-02
20  7 8.24391875E-02-5.68581367E-02 0.00000000E+00 5.11161525E-02-8.00672970E-02
20  8-1.20182527E+00 0.00000000E+00 1.53372085E-01-3.11806942E-01 6.89492445E-02
20  9 4.90217855E-02 3.60593391E-02 0.00000000E+00 0.00000000E+00 2.69891658E-02
20 10 8.24399903E-02-5.68546876E-02 0.00000000E+00-5.11162971E-02-8.00661672E-02
20 11-1.20184635E+00 0.00000000E+00-1.53376432E-01-3.11806508E-01 6.89512664E-02
20 12 4.90242988E-02 3.60620530E-02 0.00000000E+00 0.00000000E+00-2.69888849E-02
20 13-9.08683853E-03-2.47495754E-01-9.08701697E-03-2.47508472E-01
21  1 1.91131992E-02 6.97795216E-03 0.00000000E+00 1.56345264E-02-1.42185148E-01
21  2-1.09098566E+00 0.00000000E+00 1.93924900E+00-1.44044702E+00 8.28875385E-03
21  3-1.62872061E-04 1.30885793E-02 0.00000000E+00 0.00000000E+00-2.86759913E-02
21  4-1.91129613E-02-6.98119469E-03 0.00000000E+00 1.56329985E-02 1.42186734E-01
21  5 1.09098080E+00 0.00000000E+00 1.93925582E+00 1.44044008E+00-8.28762289E-03
21  6 1.64341367E-04-1.30878777E-02 0.00000000E+00 0.00000000E+00-2.86755648E-02
21  7 7.77786499E-02-8.03766383E-03 0.00000000E+00-8.83506919E-02-4.97216249E-02
21  8-1.49609363E+00 0.00000000E+00 3.44068605E-02-3.33669307E-01 7.86896812E-02
21  9 6.72837948E-02 3.07679069E-02 0.00000000E+00 0.00000000E+00 1.96124926E-02
21 10-7.77784553E-02 8.03629747E-03 0.00000000E+00-8.83522677E-02 4.97228364E-02
21 11 1.49609347E+00 0.00000000E+00 3.44054041E-02 3.33670254E-01-7.86898531E-02
21 12-6.72834383E-02-3.07683748E-02 0.00000000E+00 0.00000000E+00 1.96125445E-02
21 13 1.25955467E-01-1.33257283E-01-1.25955690E-01 1.33265334E-01
22  1-1.05625990E-01 3.31445105E-02 0.00000000E+00-2.49935166E-01-9.42518384E-02
22  2 5.23198401E+00 0.00000000E+00-3.12113574E+00-1.82837936E+00 1.47242100E-02
22  3-3.39305564E-02 2.28459826E-02 0.00000000E+00 0.00000000E+00-2.40956615E-02
22  4 1.05624259E-01-3.31207466E-02 0.00000000E+00-2.49916652E-01 9.42616813E-02
22  5-5.23198188E+00 0.00000000E+00-3.12117706E+00 1.82838201E+00-1.47308920E-02
22  6 3.39268348E-02-2.28557574E-02 0.00000000E+00 0.00000000E+00-2.40951501E-02
22  7 4.32517611E-02-6.98375488E-03 0.00000000E+00 1.31574466E-01 4.84096983E-02
22  8-1.04683129E+00 0.00000000E+00 5.29549971E-01-7.73298807E-02 6.11925580E-02
22  9 2.68033908E-03 3.50042013E-03 0.00000000E+00 0.00000000E+00-5.03389846E-04
22 10-4.32517621E-02 6.98584678E-03 0.00000000E+00 1.31578744E-01-4.84115950E-02
22 11 1.04682970E+00 0.00000000E+00 5.29564724E-01 7.73352208E-02-6.11925638E-02
22 12-2.67701700E-03-3.49851921E-03 0.00000000E+00 0.00000000E+00-5.01278834E-04
22 13 1.42706478E-01-1.08075571E+00-1.42703359E-01 1.08074226E+00
23  1 0.00000000E+00 0.00000000E+00-6.69365165E-01 0.00000000E+00 0.00000000E+00
23  2 0.00000000E+00 6.89213570E-01 0.00000000E+00 0.00000000E+00 0.00000000E+00
23  3 0.00000000E+00 0.00000000E+00 4.73897109E-02 1.35165030E-02 0.00000000E+00
23  4 0.00000000E+00 0.00000000E+00-6.69366394E-01 0.00000000E+00 0.00000000E+00
23  5 0.00000000E+00 6.89217607E-01 0.00000000E+00 0.00000000E+00 0.00000000E+00
23  6 0.00000000E+00 0.00000000E+00-4.73897550E-02 1.35166189E-02 0.00000000E+00
23  7 0.00000000E+00 0.00000000E+00-4.34120411E-02 0.00000000E+00 0.00000000E+00
23  8 0.00000000E+00-5.97973738E-02 0.00000000E+00 0.00000000E+00 0.00000000E+00
23  9 0.00000000E+00 0.00000000E+00 2.73531640E-02-5.17618749E-02 0.00000000E+00
23 10 0.00000000E+00 0.00000000E+00-4.34125256E-02 0.00000000E+00 0.00000000E+00
23 11 0.00000000E+00-5.97977769E-02 0.00000000E+00 0.00000000E+00 0.00000000E+00
23 12 0.00000000E+00 0.00000000E+00-2.73531845E-02-5.17618251E-02 0.00000000E+00
23 13 0.00000000E+00 0.00000000E+00 0.00000000E+00 0.00000000E+00
24  1 1.35429317E-02 4.90236139E-01 0.00000000E+00-3.97935000E-01 7.42780141E-03
24  2-1.09212179E-01 0.00000000E+00 1.00819716E+00 2.59686212E-01-1.59772451E-02
24  3 9.68328459E-02 3.93505635E-02 0.00000000E+00 0.00000000E+00 4.86145743E-02
24  4 1.35388552E-02 4.90241368E-01 0.00000000E+00 3.97945095E-01 7.42171310E-03
24  5-1.09050085E-01 0.00000000E+00-1.00809893E+00 2.59647822E-01-1.59784297E-02
24  6 9.68275268E-02 3.93487341E-02 0.00000000E+00 0.00000000E+00-4.86134668E-02
24  7-7.50820908E-03 8.07908971E-02 0.00000000E+00-1.03178524E-01-1.01695591E-01
24  8-5.18327875E-02 0.00000000E+00-2.33130751E-01-3.87617768E-03-7.65923858E-03
24  9 6.28284372E-02 2.47342805E-02 0.00000000E+00 0.00000000E+00-2.93485501E-02
24 10-7.50739077E-03 8.07893616E-02 0.00000000E+00 1.03172933E-01-1.01693517E-01
24 11-5.18523785E-02 0.00000000E+00 2.33115595E-01-3.87813461E-03-7.65844124E-03
24 12 6.28277742E-02 2.47328016E-02 0.00000000E+00 0.00000000E+00 2.93489183E-02
24 13 2.71691757E-01-5.58225401E-01 2.71695235E-01-5.58253173E-01
25  1 0.00000000E+00 0.00000000E+00-6.81998722E-01 0.00000000E+00 0.00000000E+00
25  2 0.00000000E+00 1.32202128E+00 0.00000000E+00 0.00000000E+00 0.00000000E+00
25  3 0.00000000E+00 0.00000000E+00-1.16395645E-02 1.16589197E-02 0.00000000E+00
25  4 0.00000000E+00 0.00000000E+00 6.81997346E-01 0.00000000E+00 0.00000000E+00
25  5 0.00000000E+00-1.32201944E+00 0.00000000E+00 0.00000000E+00 0.00000000E+00
25  6 0.00000000E+00 0.00000000E+00-1.16398912E-02-1.16587314E-02 0.00000000E+00
25  7 0.00000000E+00 0.00000000E+00-4.26981536E-02 0.00000000E+00 0.00000000E+00
25  8 0.00000000E+00-1.23354813E-01 0.00000000E+00 0.00000000E+00 0.00000000E+00
25  9 0.00000000E+00 0.00000000E+00 5.90649495E-02-5.05899284E-02 0.00000000E+00
25 10 0.00000000E+00 0.00000000E+00 4.26976512E-02 0.00000000E+00 0.00000000E+00
25 11 0.00000000E+00 1.23354891E-01 0.00000000E+00 0.00000000E+00 0.00000000E+00
25 12 0.00000000E+00 0.00000000E+00 5.90649498E-02 5.05898478E-02 0.00000000E+00
25 13 0.00000000E+00 0.00000000E+00 0.00000000E+00 0.00000000E+00
26  1 4.57288927E-02 1.52539530E-01 0.00000000E+00-1.93427884E-01 4.77098987E-01
26  2-3.59003538E-01 0.00000000E+00 1.62692544E-01-6.12858977E-01-4.87226009E-02
26  3 2.21360602E-02 5.12972903E-02 0.00000000E+00 0.00000000E+00-2.03172541E-01
26  4 4.57260064E-02 1.52545531E-01 0.00000000E+00 1.93471392E-01 4.77078135E-01
26  5-3.59041195E-01 0.00000000E+00-1.62756334E-01-6.12786419E-01-4.87202728E-02
26  6 2.21263963E-02 5.12970079E-02 0.00000000E+00 0.00000000E+00 2.03172646E-01
26  7-1.80417984E-02 2.90123087E-02 0.00000000E+00-1.91764622E-01 1.85706672E-01
26  8-1.17463098E-01 0.00000000E+00 4.05854501E-02-1.12767180E-02 1.95800283E-02
26  9-4.86637324E-02-7.71552430E-02 0.00000000E+00 0.00000000E+00 1.05784252E-01
26 10-1.80419928E-02 2.90077609E-02 0.00000000E+00 1.91758511E-01 1.85707561E-01
26 11-1.17439824E-01 0.00000000E+00-4.05813358E-02-1.12742924E-02 1.95791300E-02
26 12-4.86601707E-02-7.71612919E-02 0.00000000E+00 0.00000000E+00-1.05781243E-01
26 13-3.96403818E-01 7.76050064E-01-3.96411723E-01 7.76099550E-01
27  1 2.56538151E-02 6.70257872E-02 0.00000000E+00 6.62273889E-01 3.99313218E-01
27  2 6.04270245E-01 0.00000000E+00-1.27997576E+00-1.46242087E+00-1.96265622E-02
27  3 1.31784568E-01-1.99149028E-02 0.00000000E+00 0.00000000E+00-8.78896344E-03
27  4-2.56572049E-02-6.70371510E-02 0.00000000E+00 6.62264352E-01-3.99341568E-01
27  5-6.04237806E-01 0.00000000E+00-1.27997015E+00 1.46245790E+00 1.96270385E-02
27  6-1.31789923E-01 1.99071582E-02 0.00000000E+00 0.00000000E+00-8.79907651E-03
27  7 4.65009805E-03 2.90179415E-02 0.00000000E+00-7.62593764E-02-1.15605702E-02
27  8-3.33134301E-01 0.00000000E+00 8.12386207E-02-1.45378006E-02 1.86583369E-03
27  9-7.49902006E-02 8.64652512E-02 0.00000000E+00 0.00000000E+00 4.16008595E-02
27 10-4.64891466E-03-2.90201786E-02 0.00000000E+00-7.62692129E-02 1.15504977E-02
27 11 3.33139771E-01 0.00000000E+00 8.12420943E-02 1.45390013E-02-1.86657684E-03
27 12 7.49930644E-02-8.64609494E-02 0.00000000E+00 0.00000000E+00 4.16071600E-02
27 13 3.04515281E-01-1.19892302E+00-3.04497352E-01 1.19887835E+00
28  1 1.17206172E-02-4.78924454E-01 0.00000000E+00-2.78962799E-01-4.32928387E-01
28  2 1.16153248E+00 0.00000000E+00 7.69958574E-01 5.97279750E-01-9.04486616E-03
28  3-7.34453275E-02-4.72729149E-02 0.00000000E+00 0.00000000E+00-6.32298815E-02
28  4 1.17200850E-02-4.78935910E-01 0.00000000E+00 2.78953149E-01-4.32926611E-01
28  5 1.16160782E+00 0.00000000E+00-7.69913795E-01 5.97266387E-01-9.04588512E-03
28  6-7.34458107E-02-4.72745108E-02 0.00000000E+00 0.00000000E+00 6.32296887E-02
28  7 5.04688819E-03 6.32234690E-02 0.00000000E+00-2.25251241E-01-5.38638709E-02
28  8-3.03047350E-01 0.00000000E+00 4.74548812E-02-1.26466950E-01 5.38979101E-02
28  9 3.42985498E-02-2.94101858E-02 0.00000000E+00 0.00000000E+00-7.66607579E-03
28 10 5.04697499E-03 6.32245505E-02 0.00000000E+00 2.25250433E-01-5.38634531E-02
28 11-3.03054549E-01 0.00000000E+00-4.74568817E-02-1.26466596E-01 5.38983998E-02