!Total energy of the molecule: Euncorr(2)=     -749.735854973
!Dipole moment D(xyz),DA(2)=   -0.0496378   -1.9674408    0.3250395    1.9947275
!     (2) MAXIMUM GRADIENT =  0.0612330    RMS GRADIENT = 0.0211103
!
 $contrl nosym=1 runtyp=gradient units=angs nprint=-5 $end
 $system memory=100000000 BALTYP=NXTVAL  $end
 $gddi ngroup=1 parout=.t. BALTYP=NXTVAL $end
 $scf dirscf=.f. NPUNCH=0 diis=.f. soscf=.t. $end
 $intgrl nintic=-90000000 $end
 $basis gbasis=sto ngauss=3 $end
 $elmom where=cocharge $end
! DO NOT USE idpgd=2 in production runs.
! It is added here to test the functionality only.
 $fmm idpgd=2 $end
 $fmo
        nfrag=10 nlayer=1 nacut=3 nbody=2
        resppc=-1 resdim=2.0 modesp=0 modgrd=0 modmul=9
 $end
 $fmoprp nprint=9 $end
 $data
 (H2O)10 optimized at HF/3-21+G
c1
h-1 1
o-1 8
 $end
 $fmoxyz
 8 8         -0.219481   -0.107456   -1.428560
 1 1         -0.782252   -0.028096   -0.630868
 1 1          0.488352    0.617042   -1.424407
 8 8         -2.270477    0.065813    0.451612
 1 1         -2.838843    0.005487   -0.340469
 1 1         -2.244152   -0.760371    0.996725
 8 8         -1.428977    2.291839    1.609005
 1 1         -1.787177    1.474035    1.173114
 1 1         -1.918803    2.513201    2.406581
 8 8          0.783894    3.368026    0.603475
 1 1          0.866941    4.320535    0.700639
 1 1         -0.043877    3.013969    1.020595
 8 8         -1.760073   -2.088475    1.876451
 1 1         -2.202964   -2.751106    2.413272
 1 1         -0.780564   -2.232685    1.811026
 8 8          1.292041   -2.164463   -1.195781
 1 1          0.633224   -1.416497   -1.392864
 1 1          1.185683   -2.924830   -1.776977
 8 8          3.460724   -0.525560   -0.716173
 1 1          2.825250   -1.235820   -0.942161
 1 1          4.378448   -0.807477   -0.773421
 8 8          0.846149   -2.298168    1.485084
 1 1          1.505061   -1.824359    2.004572
 1 1          1.088070   -2.327609    0.532869
 8 8         -2.836400   -0.054152   -2.207877
 1 1         -1.865154   -0.040610   -2.330031
 1 1         -3.327545    0.042899   -3.027981
 8 8          1.697285    1.557978   -1.120447
 1 1          2.513729    1.064383   -0.922884
 1 1          1.507338    2.308872   -0.511523
 $end
