 $contrl scftyp=rhf runtyp=energy nprint=-5 $end
 $system mwords=100 memddi=50 $end
 $basis  gbasis=n31 ngauss=6 ndfunc=1 $end
 $gddi   ngroup=1 $end
 $scf    dirscf=.f. $end
 $fmo    nfrag=4 nacut=3
         iefmo=1 modefm(1)=0,16,32,1,1
         resdim=0.3 $end
 $data
 4h2o
 c1
 H    1
 O    8
 $end

 $fmoxyz
 O      8.0            1.3716067336  -1.0571166528   0.0714131826
 H      1.0            2.2330811197  -0.7151139265   0.2439709135
 H      1.0            0.7597649442  -0.5824339722   0.6283356839
 O      8.0          -0.6796980342   0.4952715355   1.3189788094
 H      1.0          -1.2060675765   0.7084305776   0.5525884869
 H      1.0          -1.2722862390   0.2617594214   2.0139842230
 O      8.0             -0.0953782312  -1.0033984165  -2.3826118851
 H      1.0              0.5099302902  -1.0963459010  -1.6512875472
 H      1.0             -0.2440045070  -1.8639941530  -2.7377858438
 O      8.0             -1.9787317968   0.8006120356  -1.2095045972
 H      1.0             -2.0906607668   1.5864286612  -1.7183258526
 H      1.0             -1.4530859362   0.1969807907  -1.7283555735
 $END

