 $SYSTEM MWORDS=1600 $END
 $CONTRL nprint=-5 SCFTYP=RHF MULT=1 ICHARG=0 ISPHER=1  $END
 $CONTRL RUNTYP=OPTIMIZE $END
 $STAT NSTEP100 $END
 $SCF DIRSCF=.T. FDIFF=.F. $END
 $BASIS GBASIS=N311 NGAUSS=6 NDFUNC=1 NPFUNC=1 $END
 $DATA
 0050w_6311++Gdp.inp basis 6311++Gdp
 C1 
  O  8.0           -1.644563        5.117751       -1.164203
  H  1.0           -0.857406        4.596930       -1.161602
  H  1.0           -2.369654        4.513524       -1.158549
  O  8.0            2.856585       -1.020169        0.829861
  H  1.0            3.770345       -1.240047        0.742832
  H  1.0            2.698306       -0.877356        1.749334
  O  8.0           -0.184940       -4.054807        3.566491
  H  1.0            0.463052       -4.539968        3.081101
  H  1.0           -0.180581       -3.176207        3.221640
  O  8.0           -1.872437        0.587275       -2.653954
  H  1.0           -2.369162        0.731013       -3.443562
  H  1.0           -2.141083       -0.250962       -2.313269
  O  8.0            1.785077        2.568986       -3.820554
  H  1.0            2.711751        2.619330       -3.992654
  H  1.0            1.420592        3.408967       -4.049596
  O  8.0           -1.865456       -0.839825        3.039996
  H  1.0           -1.394515       -1.657592        3.021272
  H  1.0           -2.771268       -1.052006        3.199250
  O  8.0            1.409036        3.040828        3.297247
  H  1.0            2.190693        3.528146        3.503191
  H  1.0            1.038344        2.762520        4.119446
  O  8.0            2.655176        1.827025        1.155600
  H  1.0            2.605060        1.383006        0.324208
  H  1.0            3.504861        2.236236        1.193815
  O  8.0            2.356170       -2.400561        3.178998
  H  1.0            1.607890       -2.686336        2.679711
  H  1.0            2.762294       -3.177806        3.528043
  O  8.0            2.695608       -0.520622        4.638639
  H  1.0            1.909499       -0.391221        5.144768
  H  1.0            2.437743       -0.514660        3.730703
  O  8.0           -2.333563        1.900181        1.609739
  H  1.0           -1.784041        1.224426        1.246065
  H  1.0           -1.854591        2.282177        2.327752
  O  8.0            5.092627        0.337479        0.228724
  H  1.0            5.424545       -0.180207        0.944761
  H  1.0            5.553232        0.056320       -0.545660
  O  8.0           -2.368965       -4.358459        0.909354
  H  1.0           -2.817317       -4.387291        1.739430
  H  1.0           -3.033107       -4.407261        0.240465
  O  8.0            3.709797        3.386722       -1.246314
  H  1.0            3.813976        3.949325       -0.495646
  H  1.0            3.054329        2.747365       -1.017267
  O  8.0            0.354423       -4.693771        1.119707
  H  1.0            0.763785       -5.392392        0.634701
  H  1.0           -0.494461       -5.009291        1.385641
  O  8.0           -3.885191        2.749381       -2.162992
  H  1.0           -3.187843        2.144769       -2.360546
  H  1.0           -4.638138        2.229065       -1.932295
  O  8.0            4.801867        1.921925       -1.928982
  H  1.0            4.012429        1.482440       -2.201961
  H  1.0            4.852520        1.830873       -0.990887
  O  8.0           -4.034112        0.527233       -0.767974
  H  1.0           -3.209934        0.766410       -0.375033
  H  1.0           -3.875622        0.430985       -1.693445
  O  8.0           -1.177815       -0.627676       -4.649446
  H  1.0           -1.706853       -0.092497       -5.219165
  H  1.0           -1.772256       -1.177743       -4.164735
  O  8.0           -3.763411       -3.220960       -1.949177
  H  1.0           -3.324424       -4.018749       -1.700780
  H  1.0           -3.091190       -2.572579       -2.085559
  O  8.0            2.708419       -3.799179        1.465824
  H  1.0            3.568355       -3.731741        1.849022
  H  1.0            2.391178       -4.666185        1.662129
  O  8.0            2.354064        0.564572       -2.737460
  H  1.0            2.895562       -0.078142       -3.167083
  H  1.0            1.585490        0.110496       -2.430886
  O  8.0            1.363082        5.247104        0.087332
  H  1.0            0.848143        4.456099        0.092606
  H  1.0            2.193656        5.027504       -0.303567
  O  8.0           -3.858094        3.331390        0.466980
  H  1.0           -2.955902        3.175109        0.237842
  H  1.0           -4.342002        3.363494       -0.342761
  O  8.0           -1.464802        5.141565        1.360765
  H  1.0           -0.521105        5.128607        1.348675
  H  1.0           -1.748412        4.241341        1.367044
  O  8.0            4.273666       -1.124712       -1.628710
  H  1.0            3.839798       -0.307169       -1.443616
  H  1.0            4.584173       -1.071682       -2.518458
  O  8.0            0.068144        0.945033       -4.333230
  H  1.0            0.821215        0.721717       -4.856578
  H  1.0           -0.254449        1.769658       -4.660040
  O  8.0           -1.578258        2.885601       -3.681635
  H  1.0           -0.980123        3.498288       -4.078786
  H  1.0           -2.417461        3.315364       -3.637809
  O  8.0            1.909953       -3.550399       -2.236985
  H  1.0            1.706571       -4.471844       -2.258290
  H  1.0            1.085946       -3.091468       -2.201300
  O  8.0            0.826980        3.949332       -2.273702
  H  1.0            1.706172        3.653053       -2.100152
  H  1.0            0.836581        4.889642       -2.192448
  O  8.0           -0.543294       -4.674103       -0.627680
  H  1.0           -1.303217       -4.123265       -0.727539
  H  1.0            0.210922       -4.122936       -0.762778
  O  8.0            0.620057       -1.175343        3.502698
  H  1.0            0.155197       -0.437135        3.863021
  H  1.0            0.854632       -1.729438        4.229906
  O  8.0            2.467080       -1.681832       -1.200396
  H  1.0            2.476725       -1.689494       -2.144179
  H  1.0            1.723166       -1.162083       -0.940914
  O  8.0            0.144512        0.013267       -1.044987
  H  1.0           -0.098923       -0.600351       -1.719591
  H  1.0           -0.575067        0.617459       -0.955335
  O  8.0           -3.822078       -0.998962       -3.032674
  H  1.0           -4.694855       -1.058647       -2.678306
  H  1.0           -3.882943       -0.478019       -3.817399
  O  8.0           -3.597799       -2.591800        1.456691
  H  1.0           -4.057140       -1.767282        1.464124
  H  1.0           -2.676041       -2.388789        1.451655
  O  8.0           -0.677803        3.662068        3.118511
  H  1.0           -0.262809        3.417564        2.306800
  H  1.0           -0.092654        4.262312        3.552315
  O  8.0           -0.144248        2.239799        0.601124
  H  1.0           -0.183945        2.866399       -0.103627
  H  1.0            0.695103        2.352920        1.017745
  O  8.0            4.329183       -0.203462        2.559651
  H  1.0            4.311986       -0.017778        3.484910
  H  1.0            4.078808        0.592525        2.118521
  O  8.0           -3.986511        0.645553        1.569686
  H  1.0           -4.780726        0.143022        1.482715
  H  1.0           -3.277825        0.024904        1.628306
  O  8.0           -0.411719       -3.526622       -3.420251
  H  1.0           -0.832880       -2.874564       -2.883294
  H  1.0           -0.275286       -3.133532       -4.267449
  O  8.0           -0.711860        2.746214       -1.980886
  H  1.0           -1.414410        2.299072       -1.536627
  H  1.0            0.049797        2.193391       -1.909172
  O  8.0           -0.616294       -1.649739        1.211006
  H  1.0           -1.312816       -1.014758        1.160664
  H  1.0            0.156314       -1.232990        0.864198
  O  8.0            2.114976        4.618574        1.766471
  H  1.0            2.262818        3.710986        1.553623
  H  1.0            1.270151        4.664974        2.184796
  O  8.0            2.495121        1.450380        3.755117
  H  1.0            3.385742        1.708068        3.578285
  H  1.0            2.393951        1.450367        4.693543
  O  8.0           -2.841829       -1.140698       -0.069699
  H  1.0           -2.186533       -1.478887       -0.658846
  H  1.0           -3.680485       -1.381010       -0.429956
  O  8.0           -3.933105        1.231591        3.564932
  H  1.0           -2.990778        1.285426        3.565067
  H  1.0           -4.152412        0.314025        3.594188
  O  8.0            0.718667        0.226513        2.062491
  H  1.0           -0.018866        0.811979        1.998042
  H  1.0            1.239889        0.360410        1.287070
  O  8.0            4.159424       -2.807749       -0.671884
  H  1.0            3.366690       -3.265086       -0.441028
  H  1.0            4.714550       -2.824879        0.091281
  O  8.0           -1.841701        0.583486        5.128638
  H  1.0           -1.160450        1.228144        5.234428
  H  1.0           -1.412883       -0.253227        5.045546
 $end
!TRAVIS-CI SKIP
