 $SYSTEM MWORDS=1600 $END
 $CONTRL nprint=-5 SCFTYP=RHF MULT=1 ICHARG=0 ISPHER=1  $END
 $CONTRL RUNTYP=ENERGY MAXIT=2 $END
 $SCF DIRSCF=.T. FDIFF=.F. $END
 $BASIS GBASIS=N311 NGAUSS=6 NDFUNC=1 NPFUNC=1 $END
 $DATA
 0100w_6311++Gdp.inp basis 6311++Gdp
 C1 
  O  8.0           -3.303553        0.237348        4.575375
  H  1.0           -4.162575       -0.110414        4.754322
  H  1.0           -2.856760        0.296718        5.404669
  O  8.0            6.350590        5.262181        0.531156
  H  1.0            6.804483        5.781700       -0.113017
  H  1.0            6.400649        5.735920        1.345983
  O  8.0            2.700146       -0.287495        2.927491
  H  1.0            2.845226        0.055949        2.060383
  H  1.0            3.148183        0.288680        3.525959
  O  8.0            3.943559        4.936681       -0.292386
  H  1.0            4.245536        4.336081        0.370161
  H  1.0            4.656576        5.530366       -0.465655
  O  8.0           -5.683899        3.397654       -3.903214
  H  1.0           -4.914533        2.919265       -4.167977
  H  1.0           -5.756414        3.298343       -2.967395
  O  8.0            0.037399        4.096780        6.254629
  H  1.0           -0.631801        3.500355        6.550140
  H  1.0           -0.407706        4.835623        5.871391
  O  8.0            2.705845        7.114295       -0.013625
  H  1.0            2.371705        6.232990        0.036682
  H  1.0            3.619003        7.072031        0.221397
  O  8.0           -7.696598        0.135775       -0.814760
  H  1.0           -7.828509       -0.772012       -0.592496
  H  1.0           -8.221045        0.306507       -1.580714
  O  8.0            1.401654       -7.251117       -4.775597
  H  1.0            1.778989       -6.438787       -4.477911
  H  1.0            0.591774       -7.031725       -5.207846
  O  8.0           -1.495912        0.860208        3.871977
  H  1.0           -0.833586        1.529877        3.933177
  H  1.0           -1.042190        0.035830        3.798386
  O  8.0            2.336524       -8.434348        1.651274
  H  1.0            1.414725       -8.514847        1.465036
  H  1.0            2.438286       -7.666413        2.190531
  O  8.0           -1.443214        5.066134       -0.388117
  H  1.0           -1.593476        4.134323       -0.393374
  H  1.0           -0.512418        5.190288       -0.292815
  O  8.0            6.479458       -0.464179       -4.736489
  H  1.0            7.292223       -0.042900       -4.966306
  H  1.0            5.828007        0.216374       -4.678715
  O  8.0            3.986755       -5.477908        5.171328
  H  1.0            3.736101       -4.843959        4.518520
  H  1.0            4.681216       -5.994668        4.795082
  O  8.0           -6.597093        1.784687       -0.577470
  H  1.0           -5.720459        1.434888       -0.571967
  H  1.0           -6.513992        2.724875       -0.581888
  O  8.0           -6.697613       -1.701368        2.726528
  H  1.0           -6.305554       -1.091836        3.331209
  H  1.0           -7.060814       -2.401776        3.244594
  O  8.0            2.932306       -1.320427       -2.281843
  H  1.0            3.024830       -1.550622       -1.371169
  H  1.0            3.331587       -0.471929       -2.389099
  O  8.0            1.214303       -1.195420        5.816740
  H  1.0            0.804213       -2.030987        5.973366
  H  1.0            0.528558       -0.601082        5.557137
  O  8.0            1.503443       -6.912024        3.891078
  H  1.0            1.690860       -7.805263        4.131656
  H  1.0            0.612960       -6.741536        4.153472
  O  8.0            0.776183        6.608785       -4.982405
  H  1.0            0.047878        7.048021       -5.391700
  H  1.0            1.361856        7.282535       -4.675931
  O  8.0            6.721600       -0.020901        1.397982
  H  1.0            7.012362       -0.915930        1.470494
  H  1.0            5.796698       -0.050348        1.212058
  O  8.0            7.094882        2.146369        5.088373
  H  1.0            6.418050        2.688635        5.460829
  H  1.0            6.999727        1.290304        5.474347
  O  8.0            3.522127        5.798390       -2.042486
  H  1.0            3.346479        6.715300       -1.903558
  H  1.0            2.702017        5.398690       -2.284431
  O  8.0           -4.795288        7.150710       -0.534947
  H  1.0           -5.287016        7.059595        0.265540
  H  1.0           -4.215822        7.886066       -0.415158
  O  8.0           -2.941753        4.757156       -3.961829
  H  1.0           -3.875278        4.777638       -3.824021
  H  1.0           -2.799747        4.338260       -4.795638
  O  8.0            4.094545        3.446866       -3.872572
  H  1.0            4.158960        2.675916       -4.413279
  H  1.0            4.023129        4.183695       -4.458115
  O  8.0           -1.438110       -0.874521        2.033596
  H  1.0           -2.007358       -0.131986        1.909193
  H  1.0           -0.553422       -0.551805        1.969877
  O  8.0           -1.084589       -1.043897       -4.118836
  H  1.0           -1.937392       -0.689190       -4.313228
  H  1.0           -1.215889       -1.738963       -3.493918
  O  8.0            1.406058        0.659621        7.166584
  H  1.0            0.889853        0.333642        7.886409
  H  1.0            2.224694        0.190196        7.185352
  O  8.0            5.461487        0.326822        4.683158
  H  1.0            5.387155       -0.452502        4.155894
  H  1.0            4.583822        0.574253        4.926797
  O  8.0           -6.141041       -5.304275        0.585885
  H  1.0           -6.855570       -4.688370        0.617296
  H  1.0           -6.522434       -6.165546        0.646125
  O  8.0           -3.802855       -6.008509        3.673155
  H  1.0           -4.329651       -6.634316        4.144037
  H  1.0           -3.044122       -5.836033        4.207433
  O  8.0            3.798390        1.981215        2.205582
  H  1.0            4.445173        1.294332        2.178361
  H  1.0            4.267076        2.797895        2.140419
  O  8.0           -5.443647       -2.710661       -1.397343
  H  1.0           -4.741934       -2.299534       -0.918332
  H  1.0           -5.041199       -3.238736       -2.068201
  O  8.0           -2.850762       -2.886961        3.155601
  H  1.0           -2.192903       -2.755259        3.819494
  H  1.0           -2.872492       -2.099763        2.635289
  O  8.0            3.334178        2.567682        5.671030
  H  1.0            3.530126        2.307613        4.785114
  H  1.0            3.867698        3.323994        5.856037
  O  8.0            5.214798        5.309330        5.016663
  H  1.0            4.527116        5.056050        4.421835
  H  1.0            5.388169        4.561111        5.565287
  O  8.0           -2.311595        3.470218        5.235958
  H  1.0           -2.603399        3.517378        6.132342
  H  1.0           -3.083359        3.353803        4.705197
  O  8.0           -3.596077        5.738183        0.147441
  H  1.0           -2.823018        6.063100        0.580669
  H  1.0           -3.443964        4.823528       -0.029043
  O  8.0            5.082698       -3.504268        0.814272
  H  1.0            4.846538       -3.404982        1.722704
  H  1.0            5.992527       -3.754798        0.796316
  O  8.0           -2.470944        7.086826        2.523370
  H  1.0           -2.551382        6.146978        2.556434
  H  1.0           -1.547794        7.278749        2.480503
  O  8.0           -3.293763        1.632569       -7.235264
  H  1.0           -2.542438        1.062355       -7.199982
  H  1.0           -2.964082        2.516873       -7.221304
  O  8.0           -2.854091       -2.768544       -1.288671
  H  1.0           -1.964585       -2.745648       -0.973818
  H  1.0           -2.903065       -3.475478       -1.912148
  O  8.0            0.624538       -4.976206       -5.341384
  H  1.0            0.836683       -4.092339       -5.087117
  H  1.0            1.045742       -5.127961       -6.172309
  O  8.0            4.678572        1.250680        7.380252
  H  1.0            5.293331        0.926080        6.741829
  H  1.0            4.710257        2.192817        7.332813
  O  8.0           -4.742716       -0.313525        1.778595
  H  1.0           -5.482485        0.147831        1.416973
  H  1.0           -4.675468       -0.051832        2.682958
  O  8.0            6.476300        4.077115        3.076601
  H  1.0            6.641832        4.521262        3.892818
  H  1.0            6.203735        3.200322        3.295283
  O  8.0            4.327389       -2.068712        6.195624
  H  1.0            3.768382       -1.352584        5.939595
  H  1.0            5.211120       -1.737211        6.193426
  O  8.0            2.750030        5.883122        4.703655
  H  1.0            2.881472        6.293836        3.864063
  H  1.0            2.425362        6.552057        5.285029
  O  8.0           -5.301611       -0.015594       -2.378729
  H  1.0           -6.215014        0.044634       -2.148627
  H  1.0           -5.088165       -0.934668       -2.403657
  O  8.0            5.765544       -2.212619       -5.755680
  H  1.0            5.232791       -1.653254       -6.298048
  H  1.0            5.770029       -3.063060       -6.165079
  O  8.0            6.195376       -5.701216        2.587602
  H  1.0            5.809562       -4.880612        2.849581
  H  1.0            6.600284       -5.554727        1.747680
  O  8.0           -5.797143       -2.825430        0.755916
  H  1.0           -5.397592       -1.986680        0.922452
  H  1.0           -5.828911       -3.279724        1.582648
  O  8.0           -4.043003        2.957809        2.016882
  H  1.0           -4.576127        2.308012        2.446324
  H  1.0           -4.357590        3.799977        2.304401
  O  8.0           -3.418146       -3.892539       -4.310609
  H  1.0           -3.211361       -4.803730       -4.177007
  H  1.0           -4.200798       -3.716238       -3.813365
  O  8.0           -1.511557        3.823904        2.675184
  H  1.0           -2.028299        3.899532        1.888967
  H  1.0           -1.871681        4.436431        3.296472
  O  8.0            3.268208        1.265874       -3.343005
  H  1.0            2.512952        0.798269       -3.662085
  H  1.0            2.944549        1.958545       -2.789534
  O  8.0            0.220930       -4.159846       -2.921912
  H  1.0            0.674861       -4.987370       -2.927313
  H  1.0            0.437714       -3.736834       -2.106471
  O  8.0            3.462339        1.874543       -6.085839
  H  1.0            3.663615        2.493121       -6.769745
  H  1.0            2.729947        1.362687       -6.389950
  O  8.0           -0.944592        0.366524        7.130615
  H  1.0           -1.217682       -0.381963        6.624584
  H  1.0           -0.480219        0.938233        6.540374
  O  8.0           -1.916667       -6.344746       -4.319796
  H  1.0           -1.186667       -5.760332       -4.191580
  H  1.0           -1.556611       -7.212301       -4.412457
  O  8.0           -3.039816        3.040654       -1.469685
  H  1.0           -3.835179        3.005035       -0.962725
  H  1.0           -3.076843        3.835733       -1.976988
  O  8.0            1.295734        3.195625        7.496585
  H  1.0            1.474828        2.874201        8.365775
  H  1.0            2.130277        3.296535        7.067360
  O  8.0            3.448247       -4.921712       -5.001283
  H  1.0            3.193496       -5.085255       -4.107284
  H  1.0            2.949968       -4.175094       -5.293101
  O  8.0           -1.750671       -2.825650       -8.329555
  H  1.0           -2.519339       -2.647498       -7.811588
  H  1.0           -1.239069       -3.455860       -7.847914
  O  8.0           -3.183709        1.906472        0.553346
  H  1.0           -3.973506        1.397180        0.465474
  H  1.0           -2.467366        1.292735        0.585860
  O  8.0           -0.802002       -4.094898       -0.022153
  H  1.0           -0.227632       -3.827355        0.677417
  H  1.0           -0.557118       -4.977022       -0.251865
  O  8.0           -4.443394        5.788327        2.084926
  H  1.0           -5.233505        5.466120        1.681459
  H  1.0           -4.599226        6.693635        2.301748
  O  8.0            6.091348        2.785155       -4.837858
  H  1.0            6.214575        3.473921       -5.471337
  H  1.0            6.889140        2.731982       -4.336282
  O  8.0           -0.418360        4.556468       -5.179893
  H  1.0           -0.051678        3.690408       -5.259654
  H  1.0           -0.222236        5.009258       -5.984502
  O  8.0            4.295744        0.403786       -0.139171
  H  1.0            4.845164        1.157881       -0.281852
  H  1.0            4.754128       -0.338063       -0.500310
  O  8.0           -5.653633       -1.756090        5.080956
  H  1.0           -5.819064       -0.969689        5.576017
  H  1.0           -4.747171       -1.978973        5.220697
  O  8.0           -7.063836        0.441312       -4.022598
  H  1.0           -6.431870        0.879154       -4.570130
  H  1.0           -7.582818        1.115870       -3.614545
  O  8.0            1.849342       -1.828421       -3.997278
  H  1.0            0.934881       -1.723885       -4.206351
  H  1.0            2.017914       -2.756820       -3.974087
  O  8.0           -3.237074       -3.770539        0.655511
  H  1.0           -3.471388       -2.862163        0.759567
  H  1.0           -4.010774       -4.274428        0.851374
  O  8.0           -2.524269        7.490728       -2.226151
  H  1.0           -1.987613        7.845368       -2.916881
  H  1.0           -3.297015        8.030621       -2.178635
  O  8.0           -0.062530        2.837338        0.464214
  H  1.0           -0.283636        2.656601       -0.435411
  H  1.0            0.554560        3.551459        0.453700
  O  8.0           -2.008619        6.985824       -5.248053
  H  1.0           -1.810241        6.328864       -5.896071
  H  1.0           -2.611416        6.591757       -4.637951
  O  8.0           -3.848781       -2.047491        6.984062
  H  1.0           -3.905867       -1.150121        7.271021
  H  1.0           -3.136071       -2.090077        6.366722
  O  8.0            5.088097        2.927403       -1.957230
  H  1.0            5.777494        3.390746       -2.405475
  H  1.0            5.130855        3.187848       -1.051019
  O  8.0            3.669699       -6.060832        2.470141
  H  1.0            4.015506       -5.262363        2.104430
  H  1.0            2.836569       -5.843561        2.856878
  O  8.0            2.063550        4.254771       -7.619777
  H  1.0            1.175817        4.572853       -7.660172
  H  1.0            2.014805        3.312241       -7.631584
  O  8.0            5.774898       -4.612282       -4.774426
  H  1.0            5.773728       -5.400632       -4.255407
  H  1.0            6.410128       -4.032458       -4.385626
  O  8.0           -3.323066        1.428149       -3.749233
  H  1.0           -2.776666        2.080719       -4.157250
  H  1.0           -3.594884        1.783112       -2.917973
  O  8.0           -4.001236       -1.042522       -4.562183
  H  1.0           -4.634417       -0.365913       -4.382849
  H  1.0           -4.484212       -1.788881       -4.879298
  O  8.0            4.792873       -5.537928       -2.541076
  H  1.0            4.842776       -4.823165       -1.926665
  H  1.0            4.081517       -6.089899       -2.257917
  O  8.0           -1.885087       -3.865628       -5.778746
  H  1.0           -2.607550       -4.132265       -6.324484
  H  1.0           -1.265722       -4.577849       -5.781515
  O  8.0            2.981284       -4.147650       -1.926628
  H  1.0            2.393437       -3.434319       -1.735646
  H  1.0            2.446817       -4.918014       -2.035080
  O  8.0           -4.873360       -4.642169       -5.436806
  H  1.0           -4.990256       -4.113422       -6.209878
  H  1.0           -4.347394       -5.383205       -5.691959
  O  8.0           -0.996476        8.278049       -0.470740
  H  1.0           -0.422020        8.067738        0.248042
  H  1.0           -1.809515        8.571221       -0.091404
  O  8.0           -3.420931       -0.228812       -0.524970
  H  1.0           -2.787381       -0.832495       -0.171331
  H  1.0           -3.075514        0.075052       -1.349126
  O  8.0            0.529693        3.675858        4.326928
  H  1.0           -0.408260        3.572462        4.347687
  H  1.0            0.898154        2.806997        4.312966
  O  8.0           -1.008360        5.443684       -2.945767
  H  1.0           -1.065724        4.536032       -2.693270
  H  1.0           -1.063471        5.950284       -2.151288
  O  8.0            1.229565       -4.173624        2.692569
  H  1.0            0.712474       -4.948948        2.543008
  H  1.0            1.530215       -4.216278        3.586251
  O  8.0            4.072751       -2.309294       -3.586892
  H  1.0            4.623821       -1.740235       -4.100088
  H  1.0            4.531119       -2.474011       -2.778408
  O  8.0            1.367415       -6.876242        0.342548
  H  1.0            2.310086       -6.903851        0.303984
  H  1.0            1.140490       -6.541112        1.195232
  O  8.0           -2.142299       -5.288229       -1.680878
  H  1.0           -1.383970       -5.099316       -2.210149
  H  1.0           -2.204866       -6.228189       -1.622241
  O  8.0            2.652967       -4.756366        0.749822
  H  1.0            1.815755       -4.879650        0.331785
  H  1.0            3.298156       -5.154542        0.187625
  O  8.0           -4.033502       -5.853380       -0.541202
  H  1.0           -4.657523       -5.772915       -1.244765
  H  1.0           -4.079248       -6.746323       -0.238816
  O  8.0           -6.449520        2.834530        2.880106
  H  1.0           -6.362741        3.769969        2.788992
  H  1.0           -7.072507        2.555123        2.228419
 $end
!TRAVIS-CI SKIP
