 $SYSTEM MWORDS=1600 $END
 $CONTRL nprint=-5 SCFTYP=RHF MULT=1 ICHARG=0 ISPHER=1  $END
 $CONTRL RUNTYP=ENERGY MAXIT=2 $END
 $SCF DIRSCF=.T. FDIFF=.F. $END
 $BASIS GBASIS=N311 NGAUSS=6 NDFUNC=1 NPFUNC=1 $END
 $DATA
 0200w_6311++Gdp.inp basis 6311++Gdp
 C1 
  O  8.0           -1.637013        3.913159       -6.190924
  H  1.0           -1.528563        3.123415       -5.685533
  H  1.0           -2.558902        4.115506       -6.183544
  O  8.0           -3.724928       -3.090446        0.777770
  H  1.0           -4.355740       -3.328853        0.117379
  H  1.0           -3.749553       -2.149624        0.849375
  O  8.0            0.059130        2.186452       -1.595908
  H  1.0            0.523451        2.435912       -0.812930
  H  1.0            0.669102        1.704337       -2.131052
  O  8.0           -5.182514        5.178083        3.008200
  H  1.0           -5.936510        5.700560        2.785969
  H  1.0           -5.041847        5.285358        3.935337
  O  8.0           -6.815900       -4.844826       -0.605413
  H  1.0           -6.768734       -4.324977        0.180978
  H  1.0           -6.294023       -5.616252       -0.452362
  O  8.0            0.544128       -5.791946       -7.853094
  H  1.0           -0.365842       -5.654317       -7.643591
  H  1.0            0.984519       -5.979095       -7.039516
  O  8.0           -2.773678        8.086125       -1.611132
  H  1.0           -3.322531        7.330233       -1.746281
  H  1.0           -1.885650        7.808438       -1.769798
  O  8.0           -0.954893       -9.164480        1.395251
  H  1.0           -1.203264       -8.375369        0.940836
  H  1.0           -1.190434       -9.886114        0.834320
  O  8.0           -3.220767        0.055759        1.040447
  H  1.0           -3.228353        0.776800        1.649479
  H  1.0           -4.118722       -0.210958        0.924609
  O  8.0           -3.827839       -0.524074       -5.737521
  H  1.0           -3.317956       -0.953107       -6.405973
  H  1.0           -3.622768       -0.953520       -4.922413
  O  8.0           -3.935800       -7.148422       -1.193803
  H  1.0           -3.621495       -6.831121       -2.025314
  H  1.0           -4.713642       -7.652418       -1.372209
  O  8.0            7.921984        1.448334        5.426761
  H  1.0            7.120200        1.093868        5.076941
  H  1.0            8.628183        1.050979        4.942745
  O  8.0            4.983555        1.477851        3.528167
  H  1.0            4.197200        1.174681        3.103183
  H  1.0            5.435675        0.710774        3.841309
  O  8.0           -5.332585        4.614369       -6.035169
  H  1.0           -5.024168        3.737368       -5.871994
  H  1.0           -4.815254        5.188987       -5.493818
  O  8.0           -2.670281        5.593821        7.309765
  H  1.0           -1.853578        6.063068        7.370443
  H  1.0           -2.477155        4.688312        7.493160
  O  8.0           -6.596990        2.029329        4.782859
  H  1.0           -6.142899        2.559115        5.418473
  H  1.0           -7.501898        2.001408        5.049768
  O  8.0           -0.777891        7.886960        0.887525
  H  1.0           -1.706615        8.016576        0.780053
  H  1.0           -0.417097        8.717485        1.153856
  O  8.0           -4.033953        3.827288        6.377313
  H  1.0           -3.945323        4.222707        5.524865
  H  1.0           -4.958011        3.702615        6.523779
  O  8.0           -7.156501        2.974050       -2.858307
  H  1.0           -7.775316        2.269045       -2.962778
  H  1.0           -7.590582        3.760990       -3.146710
  O  8.0            1.965675       -2.742538       -4.056544
  H  1.0            2.208621       -1.958239       -3.591001
  H  1.0            1.409283       -3.239751       -3.478543
  O  8.0            0.881215        4.305346       -1.594520
  H  1.0            1.356337        4.758754       -0.916612
  H  1.0            0.448892        4.966327       -2.111316
  O  8.0            4.813007       -6.831821       -4.821730
  H  1.0            4.300041       -7.122855       -4.084816
  H  1.0            4.201628       -6.578199       -5.494612
  O  8.0           -7.211650        0.062601        0.600156
  H  1.0           -7.028390        0.905103        0.216120
  H  1.0           -6.381545       -0.302710        0.861598
  O  8.0           -2.573318       -1.734053        6.222138
  H  1.0           -2.443134       -2.386885        5.553004
  H  1.0           -1.762858       -1.671968        6.701907
  O  8.0            0.313049        6.626902        5.751196
  H  1.0            0.585527        5.746411        5.954589
  H  1.0           -0.628699        6.640517        5.812859
  O  8.0            3.794273        1.582473        0.472492
  H  1.0            4.465954        1.345993        1.092008
  H  1.0            3.725797        2.523633        0.492681
  O  8.0            5.191238       -7.218927        2.642764
  H  1.0            5.293558       -8.124978        2.398879
  H  1.0            4.267145       -7.074940        2.770033
  O  8.0           -5.332966        2.096394       -7.158681
  H  1.0           -6.077709        1.816915       -7.666744
  H  1.0           -4.925411        2.799408       -7.638836
  O  8.0            6.077850        3.271175        2.993268
  H  1.0            6.472250        4.123697        2.900902
  H  1.0            5.163300        3.413931        3.177922
  O  8.0            5.375719       -6.701454       -2.016236
  H  1.0            6.291528       -6.504614       -1.900366
  H  1.0            5.024821       -6.034905       -2.584974
  O  8.0            1.492649       -4.212370        1.896177
  H  1.0            1.378599       -3.281065        1.793508
  H  1.0            0.630803       -4.580482        2.008396
  O  8.0           -0.989306       -8.962354       -2.855202
  H  1.0           -0.114941       -9.304750       -2.759654
  H  1.0           -0.978965       -8.088569       -2.498452
  O  8.0            8.512343       -3.349020       -3.668019
  H  1.0            8.140773       -4.094431       -4.112064
  H  1.0            8.846049       -3.663349       -2.842964
  O  8.0            5.507739        5.865076       -3.821221
  H  1.0            5.051681        6.690081       -3.773725
  H  1.0            4.899909        5.202217       -3.534799
  O  8.0           -6.958167        5.932732       -1.555839
  H  1.0           -6.695515        6.675624       -1.036219
  H  1.0           -7.407668        6.275639       -2.311644
  O  8.0            3.927766       -3.378559       -4.992812
  H  1.0            4.362741       -2.941862       -4.277989
  H  1.0            3.546258       -2.703655       -5.531175
  O  8.0            2.578027        5.473357       -3.960162
  H  1.0            1.713792        5.143267       -3.773033
  H  1.0            2.587646        5.705219       -4.875053
  O  8.0           -1.890466       -5.787602        2.870544
  H  1.0           -1.293994       -5.065910        2.989958
  H  1.0           -1.363280       -6.568239        2.810882
  O  8.0            1.510878       -3.970302        8.057534
  H  1.0            1.924449       -3.162016        7.799637
  H  1.0            2.204495       -4.585195        8.235522
  O  8.0            3.537860       -4.768584       -7.264551
  H  1.0            3.313955       -5.630307       -6.951216
  H  1.0            4.462064       -4.781120       -7.455782
  O  8.0           -4.254720       -4.406402        2.908562
  H  1.0           -4.687475       -4.201807        2.095087
  H  1.0           -3.329324       -4.432143        2.724556
  O  8.0            2.810617        0.615994       -7.603882
  H  1.0            3.180329        1.441042       -7.332798
  H  1.0            3.334911        0.307880       -8.325727
  O  8.0            2.196194        8.448917        1.249441
  H  1.0            1.820929        8.006867        1.994186
  H  1.0            2.668277        9.193873        1.585680
  O  8.0            1.433611        7.116657        4.194405
  H  1.0            0.657295        7.264866        3.678416
  H  1.0            1.710763        7.959723        4.515815
  O  8.0            6.717392       -5.830506        2.062307
  H  1.0            7.551914       -6.048206        2.445790
  H  1.0            6.176819       -5.496847        2.760398
  O  8.0           -1.809496       -6.495050       -0.294700
  H  1.0           -1.260417       -7.041610       -0.833831
  H  1.0           -1.433139       -5.629677       -0.313763
  O  8.0           -7.613926        3.038167       -5.621751
  H  1.0           -7.587529        2.229100       -6.107128
  H  1.0           -7.055106        3.646684       -6.078156
  O  8.0           -6.564070       -0.278005        5.759373
  H  1.0           -6.838121       -1.164195        5.584901
  H  1.0           -5.649210       -0.317048        5.988252
  O  8.0            4.558624        4.291399       -0.815521
  H  1.0            5.074155        3.795752       -0.199534
  H  1.0            3.887135        4.729041       -0.317072
  O  8.0           -6.894440        4.428212        4.260095
  H  1.0           -7.286533        5.285507        4.213339
  H  1.0           -7.565434        3.809530        4.019517
  O  8.0            1.005986       -6.123922        4.552995
  H  1.0            0.645129       -5.510996        5.173465
  H  1.0            0.919157       -5.729296        3.699995
  O  8.0           -2.198953        5.706609       -0.050515
  H  1.0           -2.888864        6.348440        0.003827
  H  1.0           -1.385040        6.174164        0.048563
  O  8.0            7.800124        1.038250       -4.680425
  H  1.0            8.708774        1.288226       -4.732825
  H  1.0            7.329683        1.599068       -5.276282
  O  8.0            2.358689        3.044487        4.084528
  H  1.0            3.084359        3.482751        4.499505
  H  1.0            1.620239        3.629636        4.140842
  O  8.0            4.036138       -5.887134        0.911897
  H  1.0            3.332770       -6.505214        0.793032
  H  1.0            4.839869       -6.380758        0.876828
  O  8.0           -5.061295       -0.018586        3.268286
  H  1.0           -4.688201        0.838405        3.399605
  H  1.0           -5.976922        0.110288        3.078822
  O  8.0           -0.083993       -1.981951        4.703529
  H  1.0           -0.901336       -1.563399        4.485257
  H  1.0           -0.114690       -2.848318        4.330241
  O  8.0           -3.057549       -8.468908        1.934330
  H  1.0           -2.806239       -9.369146        2.065834
  H  1.0           -3.948638       -8.389293        2.235162
  O  8.0            3.899243       -3.321511        7.541754
  H  1.0            3.917520       -2.490637        7.989183
  H  1.0            4.790881       -3.628768        7.503632
  O  8.0           -5.350893       -4.970160       -2.064779
  H  1.0           -5.502640       -5.719818       -2.617828
  H  1.0           -4.431467       -4.972126       -1.851405
  O  8.0           -0.164561       -1.663552       -4.570294
  H  1.0           -0.380854       -1.702293       -5.488223
  H  1.0            0.616271       -1.138307       -4.497505
  O  8.0           -7.672617       -1.774666       -4.762015
  H  1.0           -8.275075       -1.333354       -5.339221
  H  1.0           -7.048736       -2.221712       -5.311380
  O  8.0           -5.950075       -2.207479        0.472269
  H  1.0           -5.498144       -1.741738       -0.213093
  H  1.0           -6.862695       -2.225148        0.232077
  O  8.0            6.157650        0.259385       -7.845965
  H  1.0            5.249736        0.045221       -7.989856
  H  1.0            6.174572        1.113309       -7.444211
  O  8.0            7.972219        0.166920        3.244854
  H  1.0            8.643797       -0.465842        3.046175
  H  1.0            7.152305       -0.213102        2.972453
  O  8.0            1.253116        6.676617       -2.626953
  H  1.0            1.555640        7.074685       -3.427514
  H  1.0            1.362424        7.320583       -1.945603
  O  8.0            4.058721        1.559703        5.534526
  H  1.0            4.193118        2.115536        6.285435
  H  1.0            3.125641        1.455487        5.437680
  O  8.0            4.412437       -2.132181        0.125709
  H  1.0            4.784222       -1.442030       -0.399977
  H  1.0            4.593708       -1.914960        1.026172
  O  8.0           -2.510358       -6.764521       -6.109289
  H  1.0           -3.108610       -6.614058       -6.823666
  H  1.0           -1.866709       -7.381128       -6.419755
  O  8.0            1.215043       -0.949331       -8.073035
  H  1.0            1.022088       -0.028926       -8.153661
  H  1.0            0.984213       -1.198782       -7.192483
  O  8.0            1.732426        2.089625       -8.591735
  H  1.0            0.982378        2.211193       -9.151671
  H  1.0            2.067079        2.950165       -8.395890
  O  8.0           -2.418750        1.462674       -7.259928
  H  1.0           -3.265756        1.050966       -7.322821
  H  1.0           -2.552614        2.383854       -7.416091
  O  8.0           -8.694897       -2.597856       -0.525079
  H  1.0           -9.479435       -3.077827       -0.737228
  H  1.0           -8.858853       -1.696329       -0.751453
  O  8.0           -2.458726        6.072590        3.987639
  H  1.0           -1.875850        6.228582        3.261829
  H  1.0           -3.081696        5.424137        3.700766
  O  8.0           -0.631666       -3.589171        8.325933
  H  1.0           -1.352083       -4.145007        8.075086
  H  1.0           -0.519172       -3.694555        9.257124
  O  8.0            8.708639       -3.940450        1.981602
  H  1.0            8.464386       -4.406844        1.198215
  H  1.0            7.911013       -3.601095        2.355110
  O  8.0           -5.807881        1.816526       -4.089216
  H  1.0           -5.182617        1.797600       -4.796015
  H  1.0           -6.652382        1.633888       -4.469137
  O  8.0            1.708258       -9.342767        2.643633
  H  1.0            0.767633       -9.265772        2.630461
  H  1.0            2.052798       -8.464604        2.612006
  O  8.0            4.750714       -4.719271       -0.701557
  H  1.0            4.222921       -3.938720       -0.646308
  H  1.0            5.602657       -4.495235       -0.362618
  O  8.0           -0.404542       -5.215228       -2.466181
  H  1.0            0.165246       -5.910147       -2.754812
  H  1.0            0.126358       -4.437315       -2.403936
  O  8.0            2.229181       -1.802143       -0.946753
  H  1.0            2.092518       -2.709988       -1.165889
  H  1.0            1.651818       -1.607166       -0.225981
  O  8.0            2.003179        5.200121       -7.112961
  H  1.0            2.293985        6.043857       -6.805683
  H  1.0            1.804472        5.299231       -8.030333
  O  8.0            4.552891       -3.942139        5.164174
  H  1.0            5.028113       -3.126869        5.183609
  H  1.0            5.183845       -4.627603        5.315546
  O  8.0            1.070579        0.117074        5.457383
  H  1.0            0.195784       -0.056502        5.148379
  H  1.0            1.033667        0.931487        5.933038
  O  8.0           -3.405873        3.150736        3.622754
  H  1.0           -3.735561        3.194126        2.739407
  H  1.0           -3.994459        2.592149        4.104858
  O  8.0            3.759887        0.146840       -5.935330
  H  1.0            4.509221        0.710121       -6.045289
  H  1.0            3.941220       -0.643319       -6.418699
  O  8.0           -3.973938        6.412832        5.627974
  H  1.0           -4.490664        7.147724        5.338482
  H  1.0           -3.092424        6.729767        5.743572
  O  8.0           -1.970389        1.344706       -4.781454
  H  1.0           -2.858304        1.590185       -4.986942
  H  1.0           -1.989565        0.431563       -4.543377
  O  8.0            3.429670       -4.443819        3.538362
  H  1.0            3.473287       -5.352869        3.288153
  H  1.0            2.537098       -4.275639        3.795092
  O  8.0           -5.237574        5.239873       -3.557692
  H  1.0           -5.511548        4.388286       -3.858716
  H  1.0           -6.022010        5.751624       -3.440869
  O  8.0            7.565017       -1.002738       -6.462652
  H  1.0            6.640470       -1.169424       -6.553801
  H  1.0            7.665353       -0.067782       -6.381000
  O  8.0            8.698758       -2.724793        3.948458
  H  1.0            8.771658       -1.903327        4.407542
  H  1.0            8.264369       -3.324834        4.533381
  O  8.0           -2.276305       -3.800032       -1.456546
  H  1.0           -2.219347       -4.651199       -1.860465
  H  1.0           -2.595216       -3.937069       -0.578824
  O  8.0            7.768666       -4.310939       -0.763947
  H  1.0            7.432990       -5.193093       -0.762280
  H  1.0            8.710078       -4.378909       -0.765257
  O  8.0            0.797633        0.766671       -6.129746
  H  1.0            0.080796        0.787024       -5.516061
  H  1.0            1.423461        0.144275       -5.795320
  O  8.0           -2.509000        3.286415       -3.984950
  H  1.0           -2.247940        4.093202       -3.570436
  H  1.0           -3.382765        3.421525       -4.315342
  O  8.0           -0.486892       -2.691916        1.486303
  H  1.0           -0.924884       -2.202319        0.808559
  H  1.0           -1.061940       -2.693245        2.234766
  O  8.0            2.180573       -0.328209        8.653166
  H  1.0            2.485441       -0.442655        9.539076
  H  1.0            2.352373       -1.138350        8.200360
  O  8.0            5.062779        5.418672        1.631030
  H  1.0            5.274325        6.329042        1.762762
  H  1.0            4.370383        5.210509        2.237770
  O  8.0            4.496247        2.639261       -8.218979
  H  1.0            4.578574        1.812490       -8.666809
  H  1.0            5.356754        2.863103       -7.902277
  O  8.0            1.950515        5.700521        1.667257
  H  1.0            1.335921        6.227281        1.181792
  H  1.0            2.336661        5.097892        1.051946
  O  8.0            3.044174        3.020363       -1.919689
  H  1.0            3.113683        3.872465       -2.319649
  H  1.0            2.454194        3.111175       -1.188556
  O  8.0           -4.175181        2.230158        0.617010
  H  1.0           -4.709522        1.757289       -0.000852
  H  1.0           -4.751895        2.813858        1.083458
  O  8.0           -0.581605        1.624513        4.443685
  H  1.0           -1.154845        1.779846        3.710101
  H  1.0           -0.338387        2.471428        4.782001
  O  8.0           -8.742857        2.675686        1.096126
  H  1.0           -7.870914        2.367888        1.285477
  H  1.0           -9.124773        2.932586        1.920154
  O  8.0            4.889563       -1.300970        3.124040
  H  1.0            5.320408       -0.773793        2.470330
  H  1.0            4.183378       -0.779510        3.470825
  O  8.0            5.689555        6.480874       -1.074353
  H  1.0            5.914834        5.629908       -1.414918
  H  1.0            4.753984        6.569343       -1.162432
  O  8.0           -6.481860       -5.357778        2.568454
  H  1.0           -5.883151       -5.542218        3.274434
  H  1.0           -6.696284       -4.440476        2.627256
  O  8.0           -6.650744       -3.591881       -3.572514
  H  1.0           -6.875885       -4.470825       -3.312423
  H  1.0           -5.957904       -3.307980       -2.997840
  O  8.0           -5.127376       -2.485522        5.501444
  H  1.0           -5.230142       -2.290345        6.419171
  H  1.0           -5.051534       -3.423651        5.430447
  O  8.0           -3.001115       -8.849904       -0.823647
  H  1.0           -2.917284       -9.302601        0.000317
  H  1.0           -2.406361       -9.268781       -1.425051
  O  8.0            4.333726       -0.322187        6.438976
  H  1.0            5.229233       -0.276861        6.144204
  H  1.0            4.356695       -0.634491        7.329378
  O  8.0           -8.180557        0.245877       -4.163672
  H  1.0           -7.707736        0.211849       -3.347485
  H  1.0           -8.809882        0.944754       -4.083680
  O  8.0            6.898235       -0.682634        1.066621
  H  1.0            7.823207       -0.870518        1.064678
  H  1.0            6.812348        0.257292        1.072997
  O  8.0            6.923438       -0.430224       -1.496993
  H  1.0            7.490326        0.306037       -1.662632
  H  1.0            6.042285       -0.093129       -1.468454
  O  8.0           -3.746967       -6.937662        5.724138
  H  1.0           -4.674251       -6.818105        5.594800
  H  1.0           -3.504630       -6.401423        6.462107
  O  8.0           -5.615989       -7.253056        0.654871
  H  1.0           -6.399839       -7.667172        0.330887
  H  1.0           -5.829391       -6.892511        1.500652
  O  8.0           -1.485583        4.575751        4.965337
  H  1.0           -1.872480        3.715045        4.945997
  H  1.0           -0.550312        4.452164        4.994876
  O  8.0            0.539720       -5.100586       -0.169380
  H  1.0            1.436329       -4.908168        0.054106
  H  1.0            0.479533       -6.037456       -0.267003
  O  8.0           -0.694468       -7.886878        4.440526
  H  1.0           -1.197267       -8.674690        4.308533
  H  1.0            0.190231       -8.157756        4.627104
  O  8.0           -2.677639       -3.243519       -4.908410
  H  1.0           -2.134567       -3.959124       -5.197997
  H  1.0           -2.177058       -2.453746       -5.037080
  O  8.0           -3.944132       -0.040845       -1.176197
  H  1.0           -3.859175       -0.980763       -1.190819
  H  1.0           -4.868892        0.148050       -1.180200
  O  8.0           -5.514872        8.144457       -1.613766
  H  1.0           -5.247266        7.411951       -2.145463
  H  1.0           -4.753557        8.691091       -1.502103
  O  8.0           -4.103645        1.602540        7.365665
  H  1.0           -4.623248        0.841091        7.568361
  H  1.0           -3.530350        1.358840        6.656566
  O  8.0            1.624009       -6.985519       -4.601161
  H  1.0            1.951242       -6.476118       -5.325252
  H  1.0            2.080358       -7.811458       -4.622359
  O  8.0           -3.943049       -2.419003       -3.606608
  H  1.0           -4.555015       -2.723910       -4.257306
  H  1.0           -3.820370       -3.128312       -2.996109
  O  8.0           -6.310490       -0.986226       -1.940519
  H  1.0           -6.902122       -0.765562       -1.238980
  H  1.0           -6.821088       -1.436002       -2.594636
  O  8.0            7.727746        3.978743       -4.429325
  H  1.0            8.247489        3.215481       -4.233934
  H  1.0            6.841076        3.679148       -4.551544
  O  8.0           -4.467552        0.039354       -3.105647
  H  1.0           -5.280393       -0.232605       -3.500877
  H  1.0           -4.025509        0.581090       -3.739680
  O  8.0            0.447917       -6.556768        1.957485
  H  1.0            1.381168       -6.428532        1.898535
  H  1.0            0.296968       -7.486026        1.889869
  O  8.0            6.105267       -4.419065       -2.902214
  H  1.0            6.981538       -4.537142       -2.571933
  H  1.0            5.764016       -3.639731       -2.493479
  O  8.0           -0.654557        6.500693       -3.878492
  H  1.0           -1.549195        6.801523       -3.877235
  H  1.0           -0.685450        5.557580       -3.857005
  O  8.0           -2.015937        5.953456       -2.220434
  H  1.0           -2.277982        5.109503       -1.888841
  H  1.0           -1.099418        6.051988       -2.017552
  O  8.0           -5.798168        2.375790        2.724155
  H  1.0           -5.962798        3.301720        2.643969
  H  1.0           -6.640738        1.954621        2.783907
  O  8.0           -5.735582       -3.542149       -5.985918
  H  1.0           -6.087261       -3.680626       -6.850802
  H  1.0           -6.178709       -4.147180       -5.412809
  O  8.0           -7.070344        6.800326        0.920910
  H  1.0           -6.733148        7.171383        1.720593
  H  1.0           -7.739645        6.182941        1.169406
  O  8.0            0.693966        1.308536        2.697571
  H  1.0            0.803772        0.676026        3.389490
  H  1.0            0.804797        2.160394        3.088637
  O  8.0           -7.176438        4.338103        0.680030
  H  1.0           -7.339675        4.269179        1.607112
  H  1.0           -6.394210        4.856773        0.580131
  O  8.0           -2.121984       -0.304430       -8.960417
  H  1.0           -2.494054        0.527739       -9.205237
  H  1.0           -1.190910       -0.236816       -9.099729
  O  8.0            2.687397       -5.122549       -1.495864
  H  1.0            3.338124       -5.799990       -1.588092
  H  1.0            1.917111       -5.422462       -1.951485
  O  8.0            2.888613        0.866487       -2.819097
  H  1.0            3.596396        0.832896       -3.442629
  H  1.0            2.319930        1.568704       -3.091802
  O  8.0            0.648544        9.072202       -2.554133
  H  1.0            1.384676        9.427338       -3.026220
  H  1.0            0.272922        9.784433       -2.061676
  O  8.0           -9.612346       -0.808842        1.806246
  H  1.0           -8.699668       -0.576702        1.742934
  H  1.0           -9.647799       -1.747635        1.897286
  O  8.0           -5.590204        3.531116       -1.233765
  H  1.0           -4.664847        3.645794       -1.380193
  H  1.0           -6.020973        4.273922       -1.625625
  O  8.0            1.050355       -0.383494        1.721282
  H  1.0            1.240626       -1.306261        1.777648
  H  1.0            1.710894       -0.003845        1.164117
  O  8.0            0.578185       -9.236309       -0.252643
  H  1.0            0.371722       -8.315363       -0.263073
  H  1.0            1.519481       -9.303094       -0.233142
  O  8.0            6.426111        1.615838       -2.711122
  H  1.0            7.174976        2.122667       -2.981683
  H  1.0            6.386586        0.864672       -3.281268
  O  8.0            7.259699       -1.886966       -4.177247
  H  1.0            6.778461       -2.679971       -4.351693
  H  1.0            6.861924       -1.489440       -3.419206
  O  8.0           -1.504048       -0.286777        2.083821
  H  1.0           -1.758192        0.076280        2.917175
  H  1.0           -0.825150        0.271752        1.740279
  O  8.0           -8.078185        4.334683       -1.083905
  H  1.0           -8.863816        4.570662       -0.617027
  H  1.0           -8.081877        3.394161       -1.163174
  O  8.0            8.383885       -2.507354       -1.301868
  H  1.0            8.768187       -1.680974       -1.056337
  H  1.0            7.501463       -2.323618       -1.581959
  O  8.0            1.148223        2.464363        1.080933
  H  1.0            0.213824        2.504605        1.208043
  H  1.0            1.412275        3.304600        0.741585
  O  8.0           -4.312944       -1.670662       -8.712288
  H  1.0           -4.039832       -0.794369       -8.932287
  H  1.0           -3.639277       -2.251899       -9.027272
  O  8.0           -2.589884        0.929387        9.161133
  H  1.0           -3.511927        1.075414        9.300382
  H  1.0           -2.168629        1.771319        9.228764
  O  8.0           -1.909108        2.025858       -2.580797
  H  1.0           -1.304370        1.312091       -2.706126
  H  1.0           -2.776102        1.653200       -2.598837
  O  8.0           -3.534579        5.504191        1.765119
  H  1.0           -4.257603        6.045579        1.491233
  H  1.0           -3.678857        4.649527        1.391472
  O  8.0           -5.593413       -0.037992       -6.620780
  H  1.0           -5.722733       -0.906066       -6.273500
  H  1.0           -4.957493       -0.115086       -7.313990
  O  8.0            1.655783       -7.623365       -2.379730
  H  1.0            0.918009       -7.726825       -2.959268
  H  1.0            1.319648       -7.264496       -1.574060
  O  8.0            5.649801       -4.331216       -5.111702
  H  1.0            5.104284       -4.988116       -4.709494
  H  1.0            6.522680       -4.688493       -5.147943
  O  8.0            3.207544       -6.941962        4.452855
  H  1.0            3.178917       -7.885025        4.479153
  H  1.0            3.914573       -6.676131        5.018825
  O  8.0            0.057991       -6.056299        7.672479
  H  1.0            0.518026       -6.425715        6.935745
  H  1.0           -0.822380       -6.395094        7.640184
  O  8.0           -2.994360       -4.916866       -3.668230
  H  1.0           -3.594356       -5.638696       -3.569005
  H  1.0           -2.134539       -5.291438       -3.774448
  O  8.0            3.462998       -8.333977       -2.766140