 $SYSTEM MWORDS=1600 $END
 $CONTRL nprint=-5 SCFTYP=RHF MULT=1 ICHARG=0 ISPHER=1  $END
 $CONTRL RUNTYP=ENERGY MAXIT=2 $END
 $SCF DIRSCF=.T. FDIFF=.F. $END
 $BASIS GBASIS=N311 NGAUSS=6 NDFUNC=1 NPFUNC=1 $END
 $DATA
 0300w_631++Gdp.inp basis 631++Gdp
 C1 
  O  8.0           -1.260945       -3.339153        2.269963
  H  1.0           -0.721338       -2.585473        2.092003
  H  1.0           -0.716015       -4.099177        2.142320
  O  8.0            3.644014       -0.754982       10.010269
  H  1.0            2.933594       -1.283164       10.337691
  H  1.0            3.280178        0.091067        9.803621
  O  8.0            5.231317        5.932793        1.413333
  H  1.0            5.542025        6.751969        1.764460
  H  1.0            5.941313        5.316178        1.494395
  O  8.0            2.452279        6.378312        1.427215
  H  1.0            2.429937        7.260471        1.762141
  H  1.0            2.342990        6.440448        0.491762
  O  8.0            2.975791        4.940833       -1.887612
  H  1.0            2.773407        4.187075       -2.418430
  H  1.0            3.759793        5.323633       -2.247728
  O  8.0           -4.507261        3.428072       -0.672887
  H  1.0           -4.482436        3.933094       -1.469890
  H  1.0           -3.746900        2.868927       -0.682238
  O  8.0           -1.326656        2.109510        4.981722
  H  1.0           -1.029408        2.665042        4.278936
  H  1.0           -2.174062        2.432702        5.243118
  O  8.0           -9.538189        1.798086        2.308970
  H  1.0          -10.479208        1.781331        2.237688
  H  1.0           -9.240048        2.530144        1.793139
  O  8.0            6.051272       -1.706411        3.636725
  H  1.0            5.817077       -0.805298        3.481720
  H  1.0            6.849707       -1.696482        4.139995
  O  8.0            5.609409        6.399423       -0.920460
  H  1.0            5.956724        5.528342       -1.027549
  H  1.0            6.258961        6.894145       -0.446952
  O  8.0           -7.402348       -5.323285        2.733660
  H  1.0           -7.754137       -4.508792        3.055721
  H  1.0           -6.734958       -5.100610        2.104466
  O  8.0           -7.091228       -4.878198       -3.828737
  H  1.0           -7.764268       -4.216826       -3.806805
  H  1.0           -6.325006       -4.473214       -4.202596
  O  8.0           -4.926745       -2.291702        6.117646
  H  1.0           -5.591781       -2.950564        5.997202
  H  1.0           -4.995789       -1.996803        7.011596
  O  8.0           -1.987003       -9.490470       -0.865779
  H  1.0           -1.788942      -10.361998       -1.169242
  H  1.0           -2.142483       -8.964532       -1.633953
  O  8.0            4.470524        0.993874        7.343125
  H  1.0            4.557212        1.625012        6.646685
  H  1.0            5.211165        0.412623        7.276223
  O  8.0           -8.796802        1.139947       -4.786053
  H  1.0           -8.244495        0.477770       -4.402184
  H  1.0           -8.239236        1.873940       -4.989160
  O  8.0            6.083048       -2.376216        0.400063
  H  1.0            5.670831       -1.726633        0.946869
  H  1.0            5.960067       -3.208536        0.827846
  O  8.0            7.977617        0.502656       -2.085069
  H  1.0            8.543122        1.202337       -2.370603
  H  1.0            8.538485       -0.211164       -1.826678
  O  8.0           -4.558881       -7.414668        5.326895
  H  1.0           -3.943855       -8.070652        5.040002
  H  1.0           -4.875381       -7.690752        6.172166
  O  8.0           -7.491930       -7.914465        1.432957
  H  1.0           -6.639411       -8.093223        1.796461
  H  1.0           -7.449539       -7.051209        1.053657
  O  8.0           -1.828447        4.976856        4.610322
  H  1.0           -2.428010        4.254143        4.514989
  H  1.0           -0.964527        4.604399        4.686453
  O  8.0            1.180996       -6.281849        0.575226
  H  1.0            0.520399       -5.657137        0.828652
  H  1.0            0.776989       -7.134062        0.612515
  O  8.0           -0.358889       -9.656996        4.837102
  H  1.0           -0.417579       -9.323143        3.956208
  H  1.0           -1.126583       -9.352758        5.294227
  O  8.0           -3.593567       -4.285622       -6.463239
  H  1.0           -2.709230       -4.420634       -6.162244
  H  1.0           -3.748212       -3.354755       -6.442025
  O  8.0           -5.915210        0.187683       -1.117853
  H  1.0           -5.551708       -0.259051       -1.865632
  H  1.0           -6.197879       -0.480238       -0.513818
  O  8.0           -4.811988        8.937284       -1.355111
  H  1.0           -4.799450        9.713696       -1.891679
  H  1.0           -5.097313        8.228835       -1.909698
  O  8.0           -4.766516        1.055661        8.509876
  H  1.0           -3.831096        1.159241        8.438188
  H  1.0           -5.137735        1.923262        8.491358
  O  8.0            3.344650       -7.663878       -4.599846
  H  1.0            2.488284       -7.291800       -4.737950
  H  1.0            3.224091       -8.595515       -4.508222
  O  8.0           -3.935686       -2.975580       -3.779356
  H  1.0           -4.846955       -2.797049       -3.948454
  H  1.0           -3.845674       -3.914373       -3.741371
  O  8.0           -6.803008       -2.001617       -1.846809
  H  1.0           -6.272760       -2.594973       -2.354395
  H  1.0           -7.615545       -2.447937       -1.669436
  O  8.0            9.290273        3.715021       -4.567243
  H  1.0            8.539427        3.952144       -5.087706
  H  1.0            9.101072        2.872481       -4.186184
  O  8.0           -4.696446        1.029294       -5.409446
  H  1.0           -4.918445        1.901903       -5.692550
  H  1.0           -5.385462        0.461335       -5.715318
  O  8.0            0.486171       -8.165573        2.484421
  H  1.0            1.252694       -7.614949        2.472855
  H  1.0           -0.260946       -7.589809        2.518930
  O  8.0            7.015841       -5.100824       -3.040799
  H  1.0            7.085136       -4.550388       -2.277191
  H  1.0            7.897516       -5.294934       -3.316205
  O  8.0           -1.060127        6.415394       -4.482348
  H  1.0           -0.558909        6.509071       -5.276629
  H  1.0           -1.871279        5.996093       -4.721294
  O  8.0           -2.221880        6.754725       -2.923229
  H  1.0           -1.642889        6.073207       -2.621267
  H  1.0           -2.024325        7.524132       -2.413462
  O  8.0           -5.917433        2.993567        4.347016
  H  1.0           -6.010168        2.101374        4.053298
  H  1.0           -5.531668        3.475515        3.633020
  O  8.0           -6.426873       -4.914184       -7.005903
  H  1.0           -6.712404       -4.518164       -6.198117
  H  1.0           -5.592741       -4.526730       -7.217990
  O  8.0           -7.133903        7.719137        1.767272
  H  1.0           -7.702470        7.427318        2.461859
  H  1.0           -6.955115        6.965238        1.228246
  O  8.0            1.212521        1.859882        2.906239
  H  1.0            0.329381        2.191887        2.932954
  H  1.0            1.620271        2.107750        3.720598
  O  8.0           -8.816581        6.096372       -0.070197
  H  1.0           -8.002134        5.622285       -0.123063
  H  1.0           -8.825694        6.527167        0.769572
  O  8.0           -3.277907       -0.783362      -10.152642
  H  1.0           -3.855754       -0.052382      -10.303107
  H  1.0           -2.398827       -0.465721      -10.283793
  O  8.0            2.639487       -6.700460       -2.588141
  H  1.0            3.412483       -7.236334       -2.666849
  H  1.0            2.187260       -6.989039       -1.811552
  O  8.0            3.566613        1.405758       -3.927652
  H  1.0            4.243947        1.040354       -4.474073
  H  1.0            3.149479        0.680340       -3.491022
  O  8.0          -10.710176       -2.327132        1.087141
  H  1.0          -10.385585       -3.132357        1.457455
  H  1.0          -10.179850       -2.144478        0.328017
  O  8.0           -6.427143        3.241642       -2.002926
  H  1.0           -7.060633        3.499698       -2.653292
  H  1.0           -6.520743        2.309500       -1.887911
  O  8.0            2.049549       -1.813422        0.937475
  H  1.0            2.261759       -0.968151        0.575037
  H  1.0            2.865914       -2.274307        1.047067
  O  8.0            0.650017       -8.922811       -0.617743
  H  1.0           -0.007392       -9.543209       -0.889400
  H  1.0            0.816508       -9.086929        0.296710
  O  8.0            7.413635        1.662494       -4.558335
  H  1.0            7.238543        1.059080       -3.853983
  H  1.0            8.144496        1.311057       -5.041256
  O  8.0            8.132505       -2.652612       -5.388373
  H  1.0            7.487668       -2.747902       -4.705743
  H  1.0            8.976443       -2.772024       -4.982925
  O  8.0           -1.783230        0.205782        2.492522
  H  1.0           -1.272666       -0.508892        2.146916
  H  1.0           -1.173101        0.887056        2.725945
  O  8.0           -9.102269        4.699110       -2.081034
  H  1.0           -8.203845        4.971980       -1.984835
  H  1.0           -9.370714        4.350248       -1.246102
  O  8.0            8.983951       -3.220028       -2.038492
  H  1.0            9.316381       -2.410065       -1.685889
  H  1.0            9.377276       -3.916021       -1.536727
  O  8.0           -0.310875        3.716481        1.830643
  H  1.0           -0.584196        4.314459        1.153446
  H  1.0           -1.097615        3.374082        2.223938
  O  8.0           -3.419378        1.563124       10.334275
  H  1.0           -2.543218        1.912476       10.368550
  H  1.0           -3.335286        0.624532       10.280860
  O  8.0           -2.801516        1.823830       -3.903899
  H  1.0           -3.584441        2.220211       -4.251446
  H  1.0           -2.891383        0.892362       -4.027065
  O  8.0           -3.945395        6.531132       -1.962211
  H  1.0           -4.552674        6.309493       -2.649937
  H  1.0           -3.646777        5.716331       -1.590989
  O  8.0           -5.474045       -0.075714       -8.900463
  H  1.0           -6.182324       -0.671797       -9.084593
  H  1.0           -5.831679        0.795994       -8.956158
  O  8.0            1.499097       -9.224370       -2.381833
  H  1.0            1.405605      -10.022193       -2.877430
  H  1.0            2.046740       -8.650127       -2.892920
  O  8.0            5.440538       -4.145283       -5.542803
  H  1.0            5.772051       -3.261641       -5.555187
  H  1.0            4.567536       -4.112538       -5.900118
  O  8.0            3.801531       -8.236509        3.168533
  H  1.0            4.694242       -8.028033        3.393218
  H  1.0            3.326306       -7.421050        3.160450
  O  8.0            0.625722       -5.189915        9.229343
  H  1.0           -0.128493       -5.736175        9.383090
  H  1.0            1.379007       -5.758555        9.238855
  O  8.0           -2.369910       -5.204348       -3.414442
  H  1.0           -2.586762       -5.323104       -4.325348
  H  1.0           -2.372642       -6.062228       -3.020853
  O  8.0           -1.909504        4.927299       -0.659767
  H  1.0           -1.862031        5.863446       -0.549067
  H  1.0           -1.022693        4.621000       -0.762841
  O  8.0           -0.675024       -3.118929       -2.532922
  H  1.0            0.251067       -3.066461       -2.707510
  H  1.0           -0.867922       -4.027006       -2.362434
  O  8.0            4.384403        3.195444       -4.137448
  H  1.0            3.541147        3.289807       -4.550839
  H  1.0            4.461702        3.900556       -3.514777
  O  8.0           -8.670524       -5.258222        0.897189
  H  1.0           -9.015045       -4.572047        1.446142
  H  1.0           -7.882444       -4.920182        0.502809
  O  8.0           -0.530000        9.687893       -3.068812
  H  1.0           -0.092675       10.016143       -3.838148
  H  1.0           -0.716617        8.776943       -3.230744
  O  8.0            4.356238        1.338411       -7.959189
  H  1.0            3.493052        1.188538       -7.608009
  H  1.0            4.411912        2.259321       -8.158447
  O  8.0            4.348444       -4.724917        1.233735
  H  1.0            5.157403       -4.768112        1.718088
  H  1.0            4.101552       -3.814593        1.198628
  O  8.0            4.819301       -1.842281       -1.016124
  H  1.0            4.558977       -2.230343       -1.836195
  H  1.0            4.258135       -2.209531       -0.351971
  O  8.0           -5.287804       -5.903994       -5.728219
  H  1.0           -4.746759       -6.155312       -6.459648
  H  1.0           -4.792086       -5.276236       -5.227158
  O  8.0           -3.571289       -3.264766        3.944233
  H  1.0           -2.776978       -3.759202        3.819803
  H  1.0           -4.012578       -3.245912        3.110094
  O  8.0            8.199460        5.794466        1.428691
  H  1.0            9.058149        6.117084        1.206320
  H  1.0            7.627904        6.030576        0.715632
  O  8.0           -1.303072        4.335906        6.626023
  H  1.0           -2.246877        4.342698        6.633966
  H  1.0           -1.038626        3.430738        6.585820
  O  8.0            0.113513       -4.336153       -6.408050
  H  1.0           -0.715976       -3.893167       -6.326873
  H  1.0            0.643473       -3.815185       -6.989955
  O  8.0            0.156022        6.708754       -7.266680
  H  1.0            1.016286        6.579828       -7.633016
  H  1.0           -0.020231        7.635110       -7.307638
  O  8.0           -6.050968       -1.937884        2.244986
  H  1.0           -6.264257       -1.018561        2.260191
  H  1.0           -5.257506       -2.023984        1.741118
  O  8.0           -4.298339        6.752987       -0.029337
  H  1.0           -3.791231        7.537526        0.105634
  H  1.0           -5.147747        7.028285       -0.335270
  O  8.0           -1.448010       -2.859680       10.520426
  H  1.0           -2.174984       -2.261945       10.449015
  H  1.0           -0.665505       -2.332752       10.550610
  O  8.0           -1.223804        1.076003       -8.411231
  H  1.0           -0.347368        0.743453       -8.301010
  H  1.0           -1.792302        0.325526       -8.478104
  O  8.0            2.232369       -3.283117       -5.636347
  H  1.0            2.216300       -4.201908       -5.851853
  H  1.0            3.021466       -3.134604       -5.140214
  O  8.0            4.684390       -7.563781       -0.748923
  H  1.0            5.428027       -7.842255       -0.238694
  H  1.0            5.027400       -7.146651       -1.523020
  O  8.0           -0.988197       -6.546937       -4.363266
  H  1.0           -0.683781       -6.102716       -5.138429
  H  1.0           -0.949123       -7.471799       -4.547609
  O  8.0           -1.696555        0.276975        5.941407
  H  1.0           -1.811030        0.995316        6.542873
  H  1.0           -2.553013        0.064546        5.606395
  O  8.0           -0.719992       -2.565300        8.072318
  H  1.0           -0.238531       -3.117895        8.667055
  H  1.0           -1.576405       -2.950504        7.977175
  O  8.0           -4.377153        6.977406       -4.561040
  H  1.0           -3.772569        7.481384       -4.040115
  H  1.0           -3.944422        6.164638       -4.768474
  O  8.0           10.452311       -0.364227        2.972527
  H  1.0            9.683630       -0.170639        2.460149
  H  1.0           10.313705        0.017659        3.824483
  O  8.0            1.382778        4.601238       -5.963838
  H  1.0            1.378337        3.665268       -5.842105
  H  1.0            1.144792        4.758927       -6.863490
  O  8.0            4.784205       -0.913440        5.165046
  H  1.0            4.505432       -0.026623        5.328507
  H  1.0            4.039237       -1.370719        4.808960
  O  8.0           -1.520048        5.270023        2.625506
  H  1.0           -2.047216        5.994277        2.922874
  H  1.0           -0.637491        5.440703        2.913324
  O  8.0            4.913961       -1.355654       -6.825637
  H  1.0            4.118705       -0.850983       -6.764380
  H  1.0            4.657556       -2.263569       -6.854381
  O  8.0            7.878130        4.361795       -2.298674
  H  1.0            7.907359        4.172625       -3.222924
  H  1.0            8.471589        5.080525       -2.149974
  O  8.0            3.888162        9.643144        1.555898
  H  1.0            4.816510        9.723965        1.405846
  H  1.0            3.653164        8.757058        1.331162
  O  8.0           -2.210903        7.094220       -6.657990
  H  1.0           -2.623715        7.935669       -6.546507
  H  1.0           -2.840898        6.445132       -6.388418
  O  8.0           -2.549319       -5.459675        1.488202
  H  1.0           -1.905472       -5.085284        0.908400
  H  1.0           -2.474124       -5.000841        2.309601
  O  8.0           -1.962636        3.121955        0.147878
  H  1.0           -2.553287        3.268468        0.869365
  H  1.0           -1.311889        2.508780        0.450241
  O  8.0           -4.113767       -5.464541        5.059476
  H  1.0           -4.413235       -5.780718        4.222081
  H  1.0           -4.878868       -5.171904        5.528371
  O  8.0            0.660344        3.130513       -7.870466
  H  1.0            1.090679        3.064311       -8.707907
  H  1.0           -0.166799        2.683678       -7.954431
  O  8.0            6.530641       -4.115251        3.088763
  H  1.0            7.302960       -4.654264        3.150949
  H  1.0            6.803899       -3.291477        2.717812
  O  8.0           -6.658782       -4.315258        6.990779
  H  1.0           -7.546782       -4.016587        6.876192
  H  1.0           -6.435291       -4.161259        7.894778
  O  8.0           -9.078472       -3.041388       -2.895235
  H  1.0           -9.483235       -2.269600       -3.257711
  H  1.0           -9.732142       -3.722137       -2.908367
  O  8.0           -1.010012        0.573366       -3.464430
  H  1.0           -0.631160        1.407583       -3.237649
  H  1.0           -0.292896        0.000819       -3.685368
  O  8.0            5.330662        2.885345        4.457944
  H  1.0            6.057298        2.915963        3.856329
  H  1.0            5.370465        2.046573        4.888937
  O  8.0           -9.061596        2.733202        5.505865
  H  1.0           -8.209600        2.485810        5.828013
  H  1.0           -8.988142        3.623187        5.200233
  O  8.0            8.251441        2.435790        5.145116
  H  1.0            8.939167        2.121484        5.710024
  H  1.0            7.697460        2.987906        5.673464
  O  8.0            0.145986       -3.919298        6.306623
  H  1.0           -0.283765       -4.469112        6.942151
  H  1.0           -0.384940       -3.940317        5.526524
  O  8.0            6.738811        2.755805       -2.486491
  H  1.0            6.231930        1.963453       -2.408213
  H  1.0            6.122659        3.470201       -2.516054
  O  8.0           -1.769293       -2.614508        6.029643
  H  1.0           -2.583555       -2.849709        5.614268
  H  1.0           -1.797097       -1.681936        6.172525
  O  8.0            3.341230        3.608570       -7.040591
  H  1.0            3.106273        4.517445       -6.942512
  H  1.0            2.568666        3.160002       -7.345237
  O  8.0            0.208440       -1.085287       -7.794966
  H  1.0           -0.641037       -0.992282       -7.394196
  H  1.0            0.427946       -2.002434       -7.755759
  O  8.0            2.831274       -8.115855       -0.325169
  H  1.0            2.628044       -8.995331       -0.601026
  H  1.0            2.998685       -8.154505        0.602925
  O  8.0           -3.192451       -1.196165        7.489791
  H  1.0           -3.594976       -0.382124        7.232518
  H  1.0           -2.870545       -1.073795        8.368586
  O  8.0           -4.762764       -0.757104       -4.272701
  H  1.0           -4.045960       -1.166763       -4.730139
  H  1.0           -4.394270       -0.336125       -3.512526
  O  8.0            7.155584       -2.468660       -2.173499
  H  1.0            7.100126       -1.526450       -2.167018
  H  1.0            6.447987       -2.785767       -1.635328
  O  8.0           -1.875637        1.122733       -1.424283
  H  1.0           -1.318887        0.366984       -1.523032
  H  1.0           -1.310004        1.878337       -1.425084
  O  8.0           -4.060022       -0.894748       -0.727231
  H  1.0           -3.681072       -1.349450        0.007971
  H  1.0           -3.798678        0.009024       -0.651255
  O  8.0            1.778249       -3.259685        9.096862
  H  1.0            2.111552       -4.019237        8.646453
  H  1.0            2.381551       -2.554875        8.923230
  O  8.0            5.551947       -4.723165        8.236085
  H  1.0            5.974267       -5.258787        7.583680
  H  1.0            5.983371       -3.883849        8.218757
  O  8.0           -6.547376       -1.607722       -4.097297
  H  1.0           -7.004782       -1.000821       -3.537539
  H  1.0           -7.076701       -2.387949       -4.141329
  O  8.0            7.414849        3.193611       -0.285263
  H  1.0            7.674501        3.050576        0.610840
  H  1.0            7.691925        2.434200       -0.772503
  O  8.0           -0.499461        8.817391        5.535815
  H  1.0           -0.357248        8.888575        6.466184
  H  1.0           -0.933418        9.611036        5.266210
  O  8.0            6.993593       -6.126274       -1.080332
  H  1.0            6.984287       -7.064336       -1.184409
  H  1.0            7.900216       -5.866525       -1.042345
  O  8.0            0.760489        0.457734       -6.683685
  H  1.0            1.576343        0.659501       -7.113277
  H  1.0            0.331313        1.281453       -6.515835
  O  8.0            1.118514        3.977007        7.826091
  H  1.0            1.323061        4.896303        7.763376
  H  1.0            0.212762        3.917664        8.084875
  O  8.0           -0.439738        4.537827       -4.376518
  H  1.0            0.358392        5.038890       -4.323576
  H  1.0           -0.198266        3.631251       -4.273123
  O  8.0            3.925853       -7.584834        5.392244
  H  1.0            4.346737       -8.425174        5.305279
  H  1.0            4.582829       -6.932195        5.209698
  O  8.0           -0.673887       -8.495381       -2.876534
  H  1.0           -0.097782       -8.059531       -2.269066
  H  1.0           -0.478557       -9.417194       -2.821898
  O  8.0           -2.285759        1.548877      -10.019464
  H  1.0           -2.236701        2.415229      -10.390821
  H  1.0           -3.042088        1.538149       -9.454902
  O  8.0            1.133133        3.158232       -2.779433
  H  1.0            1.606295        2.605500       -2.178199
  H  1.0            0.307101        3.359996       -2.369750
  O  8.0            7.973403        0.955497        1.882087
  H  1.0            7.321701        1.602916        2.098908
  H  1.0            7.678533        0.139058        2.252705
  O  8.0           -1.220483        7.665889        3.593586
  H  1.0           -0.736945        7.281779        4.307399
  H  1.0           -1.743342        8.359753        3.962436
  O  8.0            0.277900       -0.088888        7.541130
  H  1.0           -0.101689       -0.520734        6.792598
  H  1.0           -0.306322        0.615145        7.773294
  O  8.0            2.873329      -10.600920        0.534051
  H  1.0            3.117584      -10.025393        1.241148
  H  1.0            1.935363      -10.698002        0.574957
  O  8.0            1.677082        4.060451        1.158144
  H  1.0            1.203045        4.018898        0.343012
  H  1.0            1.738832        3.175839        1.481451
  O  8.0           -4.216431        6.167905        6.403023
  H  1.0           -4.933106        6.336713        5.812464
  H  1.0           -4.258921        5.251817        6.626305
  O  8.0           -1.728766        2.237600       -5.505636
  H  1.0           -2.530430        1.978402       -5.931110
  H  1.0           -1.774336        3.172969       -5.387795
  O  8.0           -6.687213        7.240851        4.900331
  H  1.0           -7.088234        6.730608        4.214976
  H  1.0           -5.865249        7.555109        4.559018
  O  8.0           -3.991427        5.350039        1.453515
  H  1.0           -3.173402        5.787515        1.279367
  H  1.0           -4.030338        4.606555        0.873347
  O  8.0           -9.233720       -3.650796       -0.995321
  H  1.0           -8.879976       -4.490080       -1.243002
  H  1.0           -8.714758       -3.340914       -0.270388
  O  8.0           -0.626762        6.385788        0.909233
  H  1.0            0.307208        6.473968        0.805302
  H  1.0           -0.871854        6.935189        1.636534
  O  8.0           -3.864346        1.352876        4.886444
  H  1.0           -4.115072        2.231886        4.651166
  H  1.0           -4.663818        0.869995        5.022638
  O  8.0            0.661745        2.030844        6.063134
  H  1.0            1.238505        1.470133        5.569343
  H  1.0            0.511448        2.798307        5.534656
  O  8.0           -9.841730        4.693834        1.397092
  H  1.0           -9.173381        4.274081        0.879408
  H  1.0           -9.738352        4.378631        2.280742
  O  8.0            2.712356        7.495003       -2.108201
  H  1.0            2.087989        6.807786       -2.277842
  H  1.0            3.454898        7.330981       -2.667312
  O  8.0            5.187714       -9.501267       -1.948503
  H  1.0            4.593555       -9.354897       -2.667132
  H  1.0            4.663856       -9.787398       -1.217353
  O  8.0           -4.433004       -4.603762        1.506279
  H  1.0           -5.135409       -3.997404        1.679010
  H  1.0           -3.956226       -4.262974        0.766398
  O  8.0           -2.329833       -1.301219       -2.639229
  H  1.0           -1.929184       -1.734230       -1.902439
  H  1.0           -2.866076       -0.608426       -2.288002
  O  8.0           -5.865452        2.694569        1.391891
  H  1.0           -5.003034        3.033647        1.571167
  H  1.0           -5.980109        2.726108        0.455549
  O  8.0            3.528336        5.264024       -4.585056
  H  1.0            3.931146        5.970063       -4.105336
  H  1.0            4.125090        5.032126       -5.278588
  O  8.0           -4.797420        4.545743       -5.836538
  H  1.0           -4.320666        3.759170       -6.048402
  H  1.0           -5.701620        4.295431       -5.733365
  O  8.0           -4.475261       -7.020116       -3.498190
  H  1.0           -5.156599       -6.618792       -2.982830
  H  1.0           -4.858712       -7.237283       -4.332865
  O  8.0            2.129470       -2.763728       -8.454004
  H  1.0            2.494652       -2.018324       -8.004679
  H  1.0            1.905911       -2.473385       -9.323832
  O  8.0            1.058959       -8.161442        5.521007
  H  1.0            0.163823       -7.862169        5.514262
  H  1.0            1.602869       -7.391054        5.481725
  O  8.0           -5.935442        3.768442        7.264312
  H  1.0           -6.052726        4.404686        6.577060
  H  1.0           -6.191737        4.188673        8.069667
  O  8.0            2.019494        0.979730       -5.100882
  H  1.0            1.150906        0.803911       -4.776042
  H  1.0            1.978138        1.808143       -5.551327
  O  8.0           -4.351677        3.800028        8.682940
  H  1.0           -3.888446        4.254058        9.368617
  H  1.0           -3.713269        3.277849        8.223982
  O  8.0           -2.111138        0.243674        0.341278
  H  1.0           -2.649023        0.857734        0.815080
  H  1.0           -1.216918        0.524905        0.451541
  O  8.0           -2.513259       -6.785537       -6.355342
  H  1.0           -2.844132       -6.207200       -7.023869
  H  1.0           -1.825550       -7.294945       -6.753384
  O  8.0            4.247796       -1.313585       -4.843230
  H  1.0            5.001182       -0.745024       -4.838107
  H  1.0            3.486670       -0.755455       -4.835630
  O  8.0           -2.288113        3.037594       -7.585760
  H  1.0           -2.060544        2.967537       -8.499096
  H  1.0           -3.222870        2.919626       -7.529270
  O  8.0           -7.435343       -1.804455        3.653229
  H  1.0           -7.806240       -2.493394        3.125329
  H  1.0           -8.119636       -1.168800        3.789479
  O  8.0           -5.866628       -6.055911        0.481152