 $SYSTEM MWORDS=1600 $END
 $CONTRL nprint=-5 SCFTYP=RHF MULT=1 ICHARG=0 ISPHER=1  $END
 $CONTRL RUNTYP=ENERGY MAXIT=2 $END
 $SCF DIRSCF=.T. FDIFF=.F. $END
 $BASIS GBASIS=N311 NGAUSS=6 NDFUNC=1 NPFUNC=1 $END
 $DATA
 0400w_6311++Gdp.inp basis 6311++Gdp
 C1 
  O  8.0          -10.187088        2.098488        5.761361
  H  1.0           -9.890465        2.505986        4.963339
  H  1.0           -9.774891        2.562576        6.472412
  O  8.0            8.191930        1.847859        5.558316
  H  1.0            9.066948        1.570938        5.338008
  H  1.0            8.113617        1.778753        6.496383
  O  8.0           -0.338646       -3.078880        8.385530
  H  1.0            0.258512       -3.700518        8.770038
  H  1.0           -0.740570       -3.509315        7.647925
  O  8.0            7.722550        3.383954       -3.012617
  H  1.0            7.318547        4.161796       -3.362790
  H  1.0            7.043674        2.731435       -2.947611
  O  8.0           -2.172519       -2.500790        6.255022
  H  1.0           -1.848003       -1.889403        6.896719
  H  1.0           -1.533492       -2.530367        5.561013
  O  8.0            2.157454        3.437978       -7.913447
  H  1.0            1.615137        4.144552       -8.225734
  H  1.0            1.574653        2.739433       -7.661941
  O  8.0           -0.580332       -0.787606       -8.967128
  H  1.0           -0.832636       -1.672353       -9.177944
  H  1.0           -1.364224       -0.340589       -8.690422
  O  8.0            3.312206       -9.356879       -0.538158
  H  1.0            3.142056       -8.920290       -1.357498
  H  1.0            2.686136       -9.021120        0.083276
  O  8.0           -3.451113       -1.347503        8.548217
  H  1.0           -2.647178       -1.808413        8.727460
  H  1.0           -3.316265       -0.868712        7.746061
  O  8.0           -5.148307       -1.401761       -5.258092
  H  1.0           -5.970648       -1.267366       -5.701456
  H  1.0           -5.354857       -1.721470       -4.394379
  O  8.0            7.837717       -2.508095       -2.306833
  H  1.0            8.651248       -2.922774       -2.545759
  H  1.0            7.391667       -3.101535       -1.723956
  O  8.0           -2.689087        1.439442       -0.118540
  H  1.0           -2.537350        0.509559       -0.174871
  H  1.0           -2.056891        1.780884        0.493525
  O  8.0           -3.580797       -0.104153        1.396476
  H  1.0           -3.164045       -0.892837        1.087976
  H  1.0           -4.499126       -0.301247        1.489772
  O  8.0            2.036380       -3.036748        9.663527
  H  1.0            2.537730       -3.815326        9.480924
  H  1.0            2.580888       -2.302278        9.429128
  O  8.0            6.632487       -4.750170        8.135093
  H  1.0            6.574988       -5.681989        8.273970
  H  1.0            7.543853       -4.553538        7.988036
  O  8.0           -7.549045       -2.097701       -4.483351
  H  1.0           -7.711663       -2.363738       -3.592477
  H  1.0           -6.981298       -2.749822       -4.861872
  O  8.0            6.238536        2.946004        0.138432
  H  1.0            6.777266        2.636868       -0.572260
  H  1.0            6.755868        3.572999        0.618143
  O  8.0            7.177321       -6.009626       -1.911279
  H  1.0            7.302835       -5.099116       -2.125982
  H  1.0            6.399297       -6.290755       -2.365727
  O  8.0            0.474412        1.221174       -7.033469
  H  1.0            0.173034        1.315285       -6.143979
  H  1.0            1.311869        0.787811       -6.991733
  O  8.0           -1.043644        5.818952        8.561695
  H  1.0           -1.702158        5.506359        7.962093
  H  1.0           -0.241014        5.890076        8.070162
  O  8.0           -0.070943        3.293553       -5.509015
  H  1.0            0.810336        3.459627       -5.803370
  H  1.0           -0.394627        4.104540       -5.150674
  O  8.0            4.412741       -8.531887        4.778515
  H  1.0            4.799095       -7.671837        4.734665
  H  1.0            5.124455       -9.150984        4.745932
  O  8.0           -1.010313       -9.769947       -4.391624
  H  1.0           -0.652749       -9.447817       -3.579676
  H  1.0           -1.194761       -9.013896       -4.925706
  O  8.0           -2.903358        1.204112      -10.834919
  H  1.0           -2.647379        1.722917      -11.580703
  H  1.0           -2.444035        0.382572      -10.905437
  O  8.0            0.859414        3.614988       -2.656142
  H  1.0            0.613039        3.881916       -1.784978
  H  1.0            1.602737        3.040676       -2.563870
  O  8.0            9.772919        1.220001        1.798013
  H  1.0           10.691323        1.369547        1.639746
  H  1.0            9.630096        0.291216        1.709475
  O  8.0           -1.431446        8.649372        6.014627
  H  1.0           -1.572795        9.581466        5.968813
  H  1.0           -1.792717        8.281032        5.224255
  O  8.0           -0.172778       -0.651793        8.081859
  H  1.0           -0.022689       -1.352579        7.467651
  H  1.0           -0.865651       -0.937615        8.655541
  O  8.0            0.636466        2.811657        2.068208
  H  1.0            1.532436        2.992472        1.832788
  H  1.0            0.211835        3.646981        2.181345
  O  8.0           -5.061300        7.042014        7.135115
  H  1.0           -5.962452        6.772445        7.056787
  H  1.0           -4.533594        6.282135        6.948065
  O  8.0           -2.762277        2.458152       -5.763402
  H  1.0           -2.608110        1.648197       -6.222839
  H  1.0           -1.950161        2.689736       -5.341841
  O  8.0           -0.546493       -9.161616        7.731175
  H  1.0            0.248210       -8.676545        7.576150
  H  1.0           -1.159428       -8.560124        8.122834
  O  8.0           -3.960966        6.146921       -0.340549
  H  1.0           -4.826179        5.902606       -0.053156
  H  1.0           -3.531810        5.352324       -0.614993
  O  8.0          -10.195238       -3.501129       -0.547665
  H  1.0          -11.026042       -3.672417       -0.133776
  H  1.0           -9.894289       -4.322502       -0.902140
  O  8.0           -0.457188        7.029562        0.732831
  H  1.0           -1.339211        6.839870        0.455466
  H  1.0           -0.068787        6.206690        0.983639
  O  8.0           -5.500763        1.313118        4.023127
  H  1.0           -4.639949        0.946887        3.897622
  H  1.0           -5.399901        2.050345        4.603817
  O  8.0           -0.183399        1.991381        4.675876
  H  1.0           -1.017924        1.551959        4.712656
  H  1.0            0.478725        1.319794        4.713845
  O  8.0          -11.153663        3.791507        2.273691
  H  1.0          -11.124258        3.080985        1.653069
  H  1.0          -10.925470        4.575244        1.799811
  O  8.0            2.252279        8.474331       -2.121136
  H  1.0            2.132381        7.538143       -2.113788
  H  1.0            1.868513        8.790688       -2.923333
  O  8.0            4.687692      -10.519011       -1.359985
  H  1.0            4.374095      -10.970072       -2.127500
  H  1.0            5.629422      -10.502079       -1.421104
  O  8.0           -4.053524       -4.413840        1.334998
  H  1.0           -4.810974       -4.481078        1.894130
  H  1.0           -3.728035       -5.291292        1.212473
  O  8.0           -1.749999       -2.231862       -2.433536
  H  1.0           -1.021557       -2.652841       -2.861352
  H  1.0           -1.406757       -1.462828       -2.007332
  O  8.0           -5.546993        4.274977        0.809670
  H  1.0           -4.626342        4.067460        0.794959
  H  1.0           -6.008208        3.456339        0.899057
  O  8.0            3.879893        6.776612       -5.589361
  H  1.0            3.343169        6.116496       -5.180640
  H  1.0            4.480113        6.323389       -6.159627
  O  8.0            0.118892       -8.571884       -7.597566
  H  1.0           -0.418733       -9.343565       -7.517912
  H  1.0            1.016136       -8.864835       -7.594253
  O  8.0           -4.975096        4.027830       -5.916551
  H  1.0           -5.023268        4.955962       -6.081262
  H  1.0           -4.182508        3.720323       -6.326576
  O  8.0           -4.082935       -7.493068       -4.796431
  H  1.0           -3.219520       -7.780896       -5.046530
  H  1.0           -4.038209       -6.555499       -4.697229
  O  8.0            2.049022       -3.926705       -8.908735
  H  1.0            1.547289       -4.252771       -9.638683
  H  1.0            2.791672       -3.471214       -9.271884
  O  8.0            2.038029       -8.035909        7.022401
  H  1.0            1.901471       -8.597116        6.275892
  H  1.0            2.942427       -8.134294        7.273923
  O  8.0           -5.969195        4.794837        8.636692
  H  1.0           -5.899052        5.730480        8.739312
  H  1.0           -6.888067        4.584694        8.685605
  O  8.0            1.780884        1.876423       -5.048109
  H  1.0            2.186129        2.261416       -4.287560
  H  1.0            2.463943        1.430653       -5.523081
  O  8.0           -4.682389        4.239921       10.199260
  H  1.0           -5.165679        3.491521        9.887482
  H  1.0           -3.794687        4.135077        9.896158
  O  8.0           -1.355367        0.626421        2.521940
  H  1.0           -2.275311        0.835437        2.551817
  H  1.0           -0.896566        1.440073        2.386481
  O  8.0           -2.477014       -6.154659       -6.030333
  H  1.0           -1.916666       -6.308850       -5.286617
  H  1.0           -2.236856       -6.788673       -6.687013
  O  8.0            4.270181       -1.152438       -5.043147
  H  1.0            4.426123       -2.080521       -4.970875
  H  1.0            5.116956       -0.737249       -5.081468
  O  8.0           -2.180863        3.944874       -7.528226
  H  1.0           -2.372049        3.025513       -7.623631
  H  1.0           -2.320237        4.158054       -6.619377
  O  8.0           -7.643426       -1.684901        4.028380
  H  1.0           -8.518692       -1.446673        4.289216
  H  1.0           -7.678164       -1.876037        3.104725
  O  8.0           -4.367145       -6.598807       -0.134906
  H  1.0           -5.192408       -6.901529        0.208866
  H  1.0           -3.835038       -7.365271       -0.277294
  O  8.0           -0.045758        0.601882       -0.828104
  H  1.0           -0.288346        1.325559       -0.272837
  H  1.0           -0.848109        0.243114       -1.172193
  O  8.0            3.787853        7.111346        7.404258
  H  1.0            3.854899        6.402329        8.023676
  H  1.0            3.566163        7.883878        7.899159
  O  8.0           -2.667270       -6.789520        2.281240
  H  1.0           -3.181153       -7.155683        1.579295
  H  1.0           -2.082293       -6.160702        1.889745
  O  8.0           -6.436598       -2.271128       -8.315741
  H  1.0           -7.124996       -2.886488       -8.511491
  H  1.0           -5.685251       -2.534248       -8.822813
  O  8.0           -3.270628       -4.792266       -1.295511
  H  1.0           -2.446310       -4.351616       -1.426679
  H  1.0           -3.916761       -4.120441       -1.147052
  O  8.0           -9.557499       -1.388679       -5.489741
  H  1.0           -9.761899       -0.520938       -5.179702
  H  1.0          -10.371826       -1.775920       -5.768658
  O  8.0           -0.164261       -2.904267       -0.982125
  H  1.0            0.526536       -2.986297       -0.344198
  H  1.0           -0.909751       -3.368210       -0.635889
  O  8.0           -0.311795        1.525094      -11.228102
  H  1.0           -0.572206        0.761964      -11.718710
  H  1.0           -0.954040        1.641458      -10.546297
  O  8.0           -0.639897       -2.624566       -4.870719
  H  1.0            0.266363       -2.888331       -4.870475
  H  1.0           -0.653683       -1.701359       -5.066621
  O  8.0            9.588981       -2.255504        5.501106
  H  1.0            8.648492       -2.277064        5.424337
  H  1.0            9.831690       -2.972820        6.064514
  O  8.0            4.464379        3.631536       -1.614471
  H  1.0            4.583074        3.955526       -0.735939
  H  1.0            3.533484        3.566338       -1.756112
  O  8.0            2.365457        5.689299       10.015774
  H  1.0            2.219268        4.763431        9.904978
  H  1.0            1.531130        6.071097       10.237151
  O  8.0            5.802631       -5.335434       -0.642651
  H  1.0            5.402143       -6.190073       -0.651583
  H  1.0            5.447741       -4.861844       -1.377936
  O  8.0          -10.116241       -1.366249        1.892192
  H  1.0          -11.013484       -1.650764        1.962090
  H  1.0           -9.585057       -2.146212        1.872707
  O  8.0            9.790902       -3.115662        3.050357
  H  1.0            9.275270       -3.371097        2.302189
  H  1.0           10.545150       -2.657049        2.716197
  O  8.0            1.645790       -6.143558        2.941367
  H  1.0            1.844438       -5.264406        2.661172
  H  1.0            0.830685       -6.381911        2.529457
  O  8.0           10.902002       -2.233451        0.812165
  H  1.0           11.629271       -2.832056        0.751918
  H  1.0           10.122982       -2.733665        0.628337
  O  8.0           -0.923346       -1.507895        0.590285
  H  1.0           -1.563891       -1.211651       -0.036468
  H  1.0           -1.247735       -1.268219        1.443635
  O  8.0           -8.630142        0.845039        5.427696
  H  1.0           -7.968583        0.176130        5.351672
  H  1.0           -8.175823        1.669903        5.491510
  O  8.0           -2.650239       -1.072690        4.002294
  H  1.0           -3.138951       -1.792290        4.368647
  H  1.0           -3.282339       -0.468452        3.647014
  O  8.0            6.346453       -0.559385       -6.785575
  H  1.0            6.904665       -1.318323       -6.728202
  H  1.0            6.888514        0.190713       -6.600099
  O  8.0           -1.603470        7.996349        8.424921
  H  1.0           -1.232421        7.574922        7.666238
  H  1.0           -2.345813        8.494712        8.122532
  O  8.0          -10.947754        0.423129       -3.704856
  H  1.0          -10.470155        0.268936       -2.905479
  H  1.0          -11.319552       -0.405186       -3.962808
  O  8.0           -1.649648       -3.835589       10.582696
  H  1.0           -2.333683       -3.626122       11.198406
  H  1.0           -1.535993       -3.075647       10.034564
  O  8.0            1.642289        2.029952        0.104799
  H  1.0            1.657238        1.087329        0.058784
  H  1.0            1.336756        2.337669       -0.733555
  O  8.0           -1.747897        3.555208        8.294746
  H  1.0           -2.667196        3.401030        8.443058
  H  1.0           -1.315278        2.720940        8.382592
  O  8.0           -5.605917        1.412580        6.566196
  H  1.0           -5.676610        2.336911        6.743660
  H  1.0           -6.469277        1.115459        6.327014
  O  8.0            5.543184        5.538187       -8.649892
  H  1.0            4.899848        5.895717       -9.240798
  H  1.0            5.999445        6.271681       -8.269511
  O  8.0           -5.848487       -0.547894       -9.206084
  H  1.0           -5.334380       -0.631530       -8.418952
  H  1.0           -5.331485       -0.910501       -9.907585
  O  8.0            6.087095        0.360215        0.163440
  H  1.0            6.708533        0.086280        0.818919
  H  1.0            5.623186        1.099983        0.521784
  O  8.0           -0.702530       -4.018870        1.992436
  H  1.0           -0.584633       -3.148552        1.646712
  H  1.0            0.151435       -4.325451        2.252495
  O  8.0           -5.651715       -4.139342        0.133452
  H  1.0           -6.563903       -4.064646        0.364130
  H  1.0           -5.533716       -5.002164       -0.230543
  O  8.0            2.069894       -4.992412       -3.593218
  H  1.0            2.899704       -4.589231       -3.393871
  H  1.0            1.748059       -4.577351       -4.377453
  O  8.0           -3.033568        5.696870        5.003579
  H  1.0           -2.624412        6.433153        4.577717
  H  1.0           -3.948809        5.909479        5.093081
  O  8.0            0.667206        6.673875       -8.528233
  H  1.0            0.118752        5.910216       -8.445157
  H  1.0            1.559595        6.376928       -8.448600
  O  8.0            2.568557        0.228013        6.439391
  H  1.0            3.097644       -0.225215        5.802578
  H  1.0            2.762683        1.147220        6.348550
  O  8.0            0.526950       -0.536307        5.406501
  H  1.0            0.620165        0.004067        6.174736
  H  1.0            1.227699       -1.168089        5.432569
  O  8.0           -0.046057        4.590013        3.902595
  H  1.0            0.679106        4.642749        4.504455
  H  1.0           -0.824477        4.479197        4.424765
  O  8.0           10.744644        2.290632       -4.382394
  H  1.0           10.476343        2.740648       -5.167491
  H  1.0           10.979906        1.413448       -4.639453
  O  8.0            4.498435        5.464158        4.718374
  H  1.0            4.411841        6.092098        4.019038
  H  1.0            5.420234        5.281212        4.806100
  O  8.0           -2.196901       -6.569157        8.409184
  H  1.0           -2.777137       -5.825957        8.366069
  H  1.0           -2.223481       -6.983606        7.561597
  O  8.0            2.352907        4.050626        0.061385
  H  1.0            2.685615        4.768431       -0.453337
  H  1.0            2.915684        3.973599        0.815194
  O  8.0           -5.062214        1.731773        0.054617
  H  1.0           -4.428749        2.376702       -0.216798
  H  1.0           -4.682582        0.886421       -0.124653
  O  8.0           -8.102504        0.415022        1.830324
  H  1.0           -8.170616        1.230050        1.359188
  H  1.0           -8.903651        0.316732        2.319589
  O  8.0           -1.937864       -6.905418        0.059457
  H  1.0           -1.388180       -7.498265        0.546549
  H  1.0           -1.912475       -7.189274       -0.840354
  O  8.0            6.040167       -5.440663        6.370887
  H  1.0            5.577878       -6.219190        6.637461
  H  1.0            6.936949       -5.695022        6.222692
  O  8.0            0.709592      -10.192834       -5.272855
  H  1.0            0.873214       -9.372028       -4.836525
  H  1.0            1.552716      -10.558118       -5.488697
  O  8.0            5.880283        2.276538       -5.063277
  H  1.0            6.413966        3.036177       -4.892956
  H  1.0            4.998423        2.587708       -5.191241
  O  8.0           -2.475296       -1.948234      -10.712307
  H  1.0           -1.703961       -1.455780      -10.943415
  H  1.0           -3.029666       -1.367154      -10.216426
  O  8.0            4.513449       -4.749834        8.108642
  H  1.0            3.671633       -5.044337        8.417661
  H  1.0            4.409366       -4.543008        7.193619
  O  8.0           -0.160592        9.018931       -0.681623
  H  1.0           -1.093139        8.926069       -0.569329
  H  1.0            0.179018        8.155607       -0.855451
  O  8.0            0.241789       -4.993965       -2.151747
  H  1.0            0.781016       -4.571363       -1.502502
  H  1.0           -0.538642       -4.470300       -2.238808
  O  8.0            4.134123        4.033933        9.765260
  H  1.0            4.353151        4.754499        9.196323
  H  1.0            4.913794        3.829297       10.256295
  O  8.0           -5.449605        2.647436       -4.577324
  H  1.0           -6.147850        2.492488       -5.193216
  H  1.0           -5.440933        1.911584       -3.986287
  O  8.0           -4.109849       -2.224502        2.390181
  H  1.0           -4.637696       -1.793308        3.043119
  H  1.0           -3.799344       -3.026658        2.778782
  O  8.0            6.780282        2.476760        8.878237
  H  1.0            7.700302        2.270137        8.920061
  H  1.0            6.463914        2.487295        9.767438
  O  8.0           -6.460503       -3.192128        4.680919
  H  1.0           -5.875301       -2.499691        4.418340
  H  1.0           -6.878626       -3.506468        3.895272
  O  8.0            0.982811        0.071033        1.636362
  H  1.0            1.211759        0.919872        1.979776
  H  1.0            0.118115        0.152136        1.266765
  O  8.0           10.745835        0.501152       -0.155205
  H  1.0           10.782958       -0.356394        0.237370
  H  1.0            9.834191        0.742589       -0.193833
  O  8.0            0.136315       -2.000419       10.300218
  H  1.0            0.702928       -1.572460        9.678383
  H  1.0            0.100083       -1.444098       11.061843
  O  8.0           -1.775999        9.075202        1.283910
  H  1.0           -1.542459        9.978803        1.424778
  H  1.0           -1.167764        8.556407        1.785688
  O  8.0           -5.903113        8.201655        0.352991
  H  1.0           -5.450490        8.773239       -0.246427
  H  1.0           -5.246093        7.658906        0.758732
  O  8.0            4.542359        0.271178        2.049175
  H  1.0            5.437989        0.250428        2.346320
  H  1.0            4.487241       -0.316404        1.312569
  O  8.0           -2.636149       -3.455263        0.328788
  H  1.0           -2.167248       -4.197188        0.676001
  H  1.0           -2.809276       -2.879174        1.056130
  O  8.0           -8.088753       -1.364097        6.612876
  H  1.0           -8.075026       -2.307832        6.605621
  H  1.0           -8.995976       -1.105724        6.580189
  O  8.0            2.984331       10.994429        3.302023
  H  1.0            2.102449       11.277457        3.483838
  H  1.0            2.958658       10.053361        3.234129
  O  8.0           -8.228429        5.131900       -0.391650
  H  1.0           -7.631921        4.591055       -0.884136
  H  1.0           -7.699763        5.732462        0.109066
  O  8.0            2.774940       -9.735763        4.911018
  H  1.0            3.426171      -10.212467        4.421601
  H  1.0            2.224984      -10.379007        5.328946
  O  8.0           -2.401188       -0.262162       10.437403
  H  1.0           -1.872757        0.514856       10.348625
  H  1.0           -1.810630       -0.997528       10.400550
  O  8.0           -0.844653        5.405940        6.180045
  H  1.0           -1.277841        6.244257        6.158807
  H  1.0            0.082494        5.578628        6.141906
  O  8.0           -6.417094       -0.407193        2.465107
  H  1.0           -6.151599       -0.557059        3.358376
  H  1.0           -6.198782       -1.188419        1.982506
  O  8.0           -6.122838        9.702816        2.596920
  H  1.0           -6.608135        9.057104        2.108637
  H  1.0           -5.598411        9.231008        3.224017
  O  8.0            2.650716       -1.024319        3.090521
  H  1.0            3.517550       -1.209157        3.415039
  H  1.0            2.707561       -0.212813        2.611872
  O  8.0           -7.108182        6.258767       -2.859691
  H  1.0           -7.991824        6.066029       -2.589679
  H  1.0           -6.588104        6.304462       -2.073365
  O  8.0            3.910209        7.890756       -7.230170
  H  1.0            4.258454        7.305570       -7.883747
  H  1.0            3.168117        8.323468       -7.621242
  O  8.0            3.068507        0.061920       -2.815046
  H  1.0            2.528444       -0.446534       -2.231364
  H  1.0            3.870129       -0.422048       -2.933605
  O  8.0           -8.544181       -8.097188        2.034112
  H  1.0           -8.455218       -8.031440        1.096754
  H  1.0           -8.945975       -7.294343        2.325455
  O  8.0            2.410012       -6.901618        5.392462
  H  1.0            2.933967       -7.011248        4.615075
  H  1.0            2.054636       -6.027849        5.359094
  O  8.0           -7.182178        5.539277        2.918508
  H  1.0           -6.413515        5.835537        3.379232
  H  1.0           -6.956549        5.514338        2.002349
  O  8.0            5.561178       -5.153962        3.541093
  H  1.0            5.494239       -4.212843        3.514776
  H  1.0            6.482091       -5.360016        3.559531
  O  8.0          -11.435272       -1.007248       -0.695499
  H  1.0          -11.328829       -0.208199       -1.186487
  H  1.0          -10.848649       -0.952722        0.041916
  O  8.0            3.398956       -6.385224       -4.086265
  H  1.0            4.085116       -6.996215       -4.302486
  H  1.0            2.680058       -6.893745       -3.746455
  O  8.0          -10.092410        1.575176        0.381466
  H  1.0          -10.284444        1.520076       -0.541012
  H  1.0           -9.952367        0.691687        0.682654
  O  8.0           -6.390389        8.526341       -4.083718
  H  1.0           -6.735120        7.698858       -4.379202
  H  1.0           -7.093948        8.969327       -3.636901
  O  8.0            4.911833        8.421691       -5.102164
  H  1.0            5.046042        8.981156       -5.850404
  H  1.0            4.130561        8.728652       -4.670576
  O  8.0           -8.036552       -1.294564       -6.798866
  H  1.0           -7.511625       -2.065882       -6.656041
  H  1.0           -7.814968       -0.684847       -6.113282
  O  8.0            5.752444       -3.440069       -9.715036
  H  1.0            4.890193       -3.375793       -9.336526
  H  1.0            5.945826       -2.597555      -10.094051
  O  8.0            6.258583        1.685442        5.140681
  H  1.0            5.872172        2.546493        5.153103
  H  1.0            5.545050        1.068285        5.111232
  O  8.0            3.593170       -4.761641        3.539600
  H  1.0            2.930580       -4.674933        4.206184
  H  1.0            3.653099       -5.681031        3.334637
  O  8.0            0.695060       -1.052880        3.494725
  H  1.0            0.213792       -1.597282        2.892326
  H  1.0            0.292552       -0.199498        3.470128
  O  8.0            4.912813       -4.846891       -3.571060
  H  1.0            5.815200       -4.677266       -3.352421
  H  1.0            4.895976       -5.092280       -4.482311
  O  8.0           10.552255        1.917478        4.074816
  H  1.0           11.045604        1.278513        3.585725
  H  1.0            9.780780        2.111413        3.566788
  O  8.0           -8.400822       -3.136362        0.623561
  H  1.0           -7.816731       -2.856181        1.310012
  H  1.0           -8.641485       -2.362626        0.139523
  O  8.0           -3.641179        5.908016       -9.324443
  H  1.0           -3.365460        5.452410      -10.103725
  H  1.0           -4.583412        5.953666       -9.355931
  O  8.0            0.914330        8.174128        6.262050
  H  1.0            0.516311        9.026776        6.188238
  H  1.0            0.209084        7.548186        6.303315
  O  8.0           -5.688414        1.241038       -1.793758
  H  1.0           -5.597791        0.561009       -2.442007
  H  1.0           -5.091341        1.930021       -2.038059
  O  8.0            1.092760       -7.733373        9.099289
  H  1.0            0.168922       -7.575899        9.211559
  H  1.0            1.542951       -7.019205        9.521391
  O  8.0           -0.584166       -5.768537        9.508033
  H  1.0           -1.037843       -6.078088       10.275649
  H  1.0           -1.113920       -5.080007        9.139028
  O  8.0            5.070172       -3.875937        5.448990
  H  1.0            4.624089       -4.678691        5.231107
  H  1.0            4.407716       -3.206904        5.515508
  O  8.0           -1.319337       -5.486893        6.072797
  H  1.0           -0.814074       -4.690013        6.048908
  H  1.0           -2.161344       -5.263444        6.436077
  O  8.0           -0.136179       -6.677040       -7.060640
  H  1.0           -0.397468       -5.958089       -6.507724
  H  1.0            0.230192       -6.297939       -7.843541
  O  8.0            6.113748       -1.767508       -3.722567
  H  1.0            6.008487       -2.431913       -3.060477
  H  1.0            6.989566       -1.859373       -4.062246
  O  8.0           -3.688965        1.862371        1.598781
  H  1.0           -4.493253        1.809486        2.089903
  H  1.0           -3.161264        2.526260        2.013101
  O  8.0            9.217369       -1.793976       -1.018495
  H  1.0            8.878221       -0.948937       -1.267023
  H  1.0           10.156711       -1.742512       -1.095086
  O  8.0            3.634209       -5.204785       -8.603255