 $SYSTEM MWORDS=2500 $END
 $CONTRL nprint=-5 SCFTYP=RHF MULT=1 ICHARG=0 ISPHER=1  $END
 $CONTRL RUNTYP=ENERGY MAXIT=2 $END
 $SCF DIRSCF=.T. FDIFF=.F. $END
 $BASIS GBASIS=N311 NGAUSS=6 NDFUNC=1 NPFUNC=1 $END
 $DATA
 0500w_631++Gdp.inp basis 631++Gdp
 C1 
  O  8.0           -8.296716        0.775471        2.713214
  H  1.0           -9.149195        1.174029        2.786080
  H  1.0           -7.681004        1.476262        2.569444
  O  8.0           -2.641960       -8.324082       -0.102383
  H  1.0           -2.976478       -7.444070       -0.034890
  H  1.0           -1.709970       -8.271480        0.037277
  O  8.0            6.776405       -5.923001        7.297883
  H  1.0            5.870369       -6.174387        7.215525
  H  1.0            6.795654       -4.979492        7.315204
  O  8.0            0.766989      -11.269514       -5.531787
  H  1.0            1.364209      -10.670659       -5.112766
  H  1.0           -0.094351      -10.891032       -5.456131
  O  8.0            6.574680        2.972953       -5.998457
  H  1.0            5.716257        3.246752       -6.279567
  H  1.0            6.446969        2.266457       -5.385732
  O  8.0           -2.277168       -2.651867      -11.946960
  H  1.0           -2.156182       -1.968398      -11.307341
  H  1.0           -1.591575       -2.548517      -12.587396
  O  8.0            5.601693       -5.060919        9.611995
  H  1.0            6.465133       -4.806007        9.328500
  H  1.0            5.028819       -4.950020        8.870110
  O  8.0           -1.666718       10.900880       -1.151280
  H  1.0           -1.203790       11.340768       -0.456244
  H  1.0           -1.019142       10.436395       -1.657025
  O  8.0            1.771623       -4.584842       -0.861086
  H  1.0            1.455949       -5.073393       -0.117752
  H  1.0            1.774929       -3.675897       -0.606749
  O  8.0            4.234346        5.512020       10.324080
  H  1.0            3.530031        5.230478        9.762339
  H  1.0            4.040486        5.183708       11.187508
  O  8.0           -6.004948        2.379697       -5.612402
  H  1.0           -5.670802        3.102645       -6.118930
  H  1.0           -6.932942        2.337378       -5.779476
  O  8.0           -3.767459       -2.000036        2.376175
  H  1.0           -4.501514       -2.447255        2.766095
  H  1.0           -4.059352       -1.125813        2.172679
  O  8.0            6.558298        3.739453        9.701928
  H  1.0            7.402764        3.980164        9.355787
  H  1.0            6.702755        3.438454       10.584770
  O  8.0           -6.614179       -2.745424        5.098410
  H  1.0           -7.388182       -3.115779        4.705174
  H  1.0           -6.284863       -2.100029        4.493517
  O  8.0            0.339753        0.226347        1.440309
  H  1.0           -0.319311       -0.431659        1.286875
  H  1.0           -0.117100        1.018757        1.673226
  O  8.0           11.911439       -0.312578        0.888158
  H  1.0           11.151206       -0.871845        0.900197
  H  1.0           11.595319        0.575846        0.928766
  O  8.0            6.912018       -6.924539       -8.406745
  H  1.0            6.237444       -7.421563       -7.972239
  H  1.0            6.509224       -6.519612       -9.158190
  O  8.0            0.324442       -1.318978       11.545718
  H  1.0            0.077281       -2.218609       11.688739
  H  1.0            1.185299       -1.211745       11.917609
  O  8.0           -2.278604       10.316231        2.061181
  H  1.0           -1.933283       10.670787        1.257489
  H  1.0           -1.726812       10.634953        2.757471
  O  8.0           -6.326006        9.750185       -0.226448
  H  1.0           -5.609279        9.174940       -0.441564
  H  1.0           -7.107151        9.220400       -0.222077
  O  8.0            4.122841        0.800326        2.246161
  H  1.0            4.059827       -0.089032        2.555919
  H  1.0            4.521855        1.301411        2.939400
  O  8.0           -1.554380       -1.814844        1.980670
  H  1.0           -2.039132       -2.525553        1.592359
  H  1.0           -2.098214       -1.046415        1.912547
  O  8.0           -9.346820       -1.565214        6.480748
  H  1.0           -8.782788       -2.245570        6.149293
  H  1.0          -10.015871       -1.426313        5.829630
  O  8.0            3.294004       11.887635        3.305369
  H  1.0            2.708960       12.046230        4.028868
  H  1.0            4.150552       11.745076        3.675342
  O  8.0           -8.282283        5.804095       -0.242945
  H  1.0           -7.441918        6.145836       -0.503479
  H  1.0           -8.353956        4.942461       -0.621533
  O  8.0            2.495568      -10.169961        5.526358
  H  1.0            2.324852      -10.668508        6.309420
  H  1.0            2.993543       -9.412744        5.790026
  O  8.0           -1.568391       -0.233645       12.106993
  H  1.0           -1.022579        0.308799       11.560438
  H  1.0           -1.632924       -1.072270       11.678715
  O  8.0            0.062039        5.241672        6.114770
  H  1.0           -0.576478        5.480813        5.462095
  H  1.0           -0.416649        4.875875        6.841357
  O  8.0           -5.721310       -0.386500        2.950216
  H  1.0           -6.551839       -0.142084        2.574238
  H  1.0           -5.807799       -0.289851        3.885126
  O  8.0            1.717666        0.282376        2.857132
  H  1.0            2.300275       -0.129856        3.474796
  H  1.0            2.213358        0.417805        2.065408
  O  8.0           -8.073886        7.487937       -2.269714
  H  1.0           -7.180379        7.213197       -2.139172
  H  1.0           -8.556754        6.722373       -2.537348
  O  8.0            4.530585        7.934202       -8.352586
  H  1.0            3.830611        8.426545       -7.954448
  H  1.0            5.332944        8.384356       -8.141732
  O  8.0            3.979807        0.449219       -1.941673
  H  1.0            3.242204        0.977942       -2.201041
  H  1.0            3.719768       -0.451499       -2.051065
  O  8.0           -8.617833       -8.459475        2.059815
  H  1.0           -8.724574       -9.303458        2.468687
  H  1.0           -9.297906       -7.903090        2.404509
  O  8.0            3.490943       -6.842518        6.043290
  H  1.0            2.595575       -6.591402        6.204950
  H  1.0            3.466801       -7.537186        5.404752
  O  8.0           -7.426280        6.233863        3.394410
  H  1.0           -8.258449        5.791795        3.340098
  H  1.0           -7.484800        6.991945        2.835156
  O  8.0            6.776454       -6.081435        3.169405
  H  1.0            6.719559       -5.151804        3.016345
  H  1.0            6.166803       -6.280145        3.862022
  O  8.0          -12.232567        0.110261       -1.174156
  H  1.0          -11.747885       -0.671929       -0.964059
  H  1.0          -12.757502       -0.091284       -1.932246
  O  8.0            4.387128       -7.153649       -3.930120
  H  1.0            4.534407       -7.433874       -4.819312
  H  1.0            3.904476       -6.343896       -3.977293
  O  8.0          -10.358147        1.364127       -0.362831
  H  1.0          -10.770013        0.880364        0.335178
  H  1.0          -10.554846        2.275235       -0.214272
  O  8.0           -7.090216        9.329104       -4.490273
  H  1.0           -7.063373       10.043173       -3.873618
  H  1.0           -7.971843        8.992297       -4.477109
  O  8.0            4.342833        9.412694       -6.315195
  H  1.0            3.598188        8.948142       -5.967958
  H  1.0            4.049765       10.288702       -6.509101
  O  8.0           -9.265993       -1.470218       -6.062346
  H  1.0           -9.023691       -0.623174       -6.400996
  H  1.0           -9.482923       -1.346540       -5.152114
  O  8.0            6.764050       -3.329011      -10.185444
  H  1.0            5.914598       -2.918705      -10.154478
  H  1.0            6.616311       -4.246440      -10.350900
  O  8.0            6.665681        1.778324        4.795440
  H  1.0            5.967961        2.333481        5.105063
  H  1.0            7.256086        2.330722        4.308454
  O  8.0            3.466172       -6.452017        3.342423
  H  1.0            4.056515       -6.006324        2.756136
  H  1.0            3.819187       -7.316958        3.477090
  O  8.0           -0.406884       -0.288471        3.816070
  H  1.0            0.109603       -0.802443        3.216109
  H  1.0           -0.970567        0.256582        3.290659
  O  8.0            6.145863       -4.682322       -5.000722
  H  1.0            6.075387       -4.097240       -4.263436
  H  1.0            5.676381       -5.467829       -4.769540
  O  8.0           10.976521        1.608688        3.523679
  H  1.0           10.313899        2.247670        3.315083
  H  1.0           11.766193        2.089168        3.714557
  O  8.0           -8.130384       -3.161975        0.302447
  H  1.0           -8.476134       -2.284595        0.263227
  H  1.0           -7.243182       -3.118458       -0.016702
  O  8.0           -3.253636        6.327918      -10.877772
  H  1.0           -2.975975        5.426366      -10.846359
  H  1.0           -3.814862        6.465090      -10.131389
  O  8.0            1.674532        8.154780        6.434199
  H  1.0            1.578078        8.715158        7.187559
  H  1.0            0.901777        7.614051        6.397598
  O  8.0           -5.267585        2.121966       -1.599239
  H  1.0           -5.192346        2.003554       -0.665861
  H  1.0           -5.587569        1.306727       -1.951198
  O  8.0            1.195363       -8.456569        8.951307
  H  1.0            0.970608       -8.474872        8.034776
  H  1.0            0.514385       -8.925044        9.407024
  O  8.0           -0.917470       -7.065847       10.335539
  H  1.0           -0.043547       -7.117574        9.982747
  H  1.0           -1.374793       -6.411132        9.832467
  O  8.0            5.207610       -4.272498        6.383205
  H  1.0            4.543597       -4.938975        6.459186
  H  1.0            4.757028       -3.444201        6.341043
  O  8.0           -0.013665       -5.360788        6.428341
  H  1.0           -0.891133       -5.695614        6.334429
  H  1.0           -0.056242       -4.434723        6.250947
  O  8.0            0.358409       -7.704141       -8.611626
  H  1.0           -0.200229       -8.049996       -7.933993
  H  1.0           -0.034093       -6.895832       -8.900514
  O  8.0            7.315992       -2.019345       -3.471493
  H  1.0            7.171157       -2.452725       -4.297376
  H  1.0            7.978073       -2.515490       -3.017216
  O  8.0           -3.258485        0.724030        2.780037
  H  1.0           -3.137076        0.799467        1.847059
  H  1.0           -4.179718        0.847080        2.944552
  O  8.0           10.265474       -1.876274       -0.802271
  H  1.0           11.178765       -2.068620       -0.661629
  H  1.0            9.814715       -2.705107       -0.829299
  O  8.0            3.545532       -3.966755       -8.972435
  H  1.0            4.465769       -4.145861       -9.081818
  H  1.0            3.111582       -4.802860       -8.913317
  O  8.0           -3.965030        8.772274        7.507801
  H  1.0           -4.662549        9.345259        7.232058
  H  1.0           -4.268849        7.889309        7.370158
  O  8.0            4.289259       -5.986591       -0.753978
  H  1.0            3.575945       -5.392524       -0.924702
  H  1.0            5.060176       -5.456314       -0.629996
  O  8.0            7.138436       -7.312901       -6.031121
  H  1.0            6.295961       -7.127574       -5.648018
  H  1.0            7.391522       -6.543209       -6.515269
  O  8.0            3.396654       10.434865        4.944414
  H  1.0            4.280564       10.138984        5.092855
  H  1.0            2.845974        9.955119        5.542305
  O  8.0           -9.094466        3.838493        3.937782
  H  1.0           -9.168248        2.925829        3.708697
  H  1.0           -9.974004        4.176838        3.990822
  O  8.0           -3.834022        4.109626       -3.257080
  H  1.0           -3.443347        3.440570       -3.796166
  H  1.0           -3.523876        3.964708       -2.377485
  O  8.0           12.932000        0.047598       -1.422405
  H  1.0           12.610887        0.899310       -1.672106
  H  1.0           12.199943       -0.421256       -1.054781
  O  8.0           -4.306049       -9.434980        0.306825
  H  1.0           -3.611771       -9.856099        0.787985
  H  1.0           -4.158630       -9.626411       -0.605589
  O  8.0            1.595444       -1.536005        8.204704
  H  1.0            0.734687       -1.919902        8.153733
  H  1.0            2.205997       -2.250042        8.295556
  O  8.0            3.180466       -3.122336       -2.624827
  H  1.0            2.373176       -3.587086       -2.472617
  H  1.0            2.972923       -2.201974       -2.597635
  O  8.0           -3.943735      -10.465415       -5.990484
  H  1.0           -3.105674      -10.889796       -6.082313
  H  1.0           -3.895153       -9.660116       -6.480395
  O  8.0            3.751346       -2.863999        9.363488
  H  1.0            4.557563       -2.794458        8.877631
  H  1.0            3.883446       -3.535398       10.013605
  O  8.0           -2.138743       -0.218303       -7.861683
  H  1.0           -2.940051       -0.716164       -7.831395
  H  1.0           -2.376468        0.686321       -7.735106
  O  8.0            7.002922        5.817136       -6.403494
  H  1.0            6.287526        6.202437       -6.883734
  H  1.0            6.784573        4.907985       -6.274474
  O  8.0            5.981154        7.092118        8.813839
  H  1.0            6.352680        6.819547        7.990096
  H  1.0            5.732484        6.305703        9.272743
  O  8.0           -2.004216       -2.282963       -6.324318
  H  1.0           -1.244628       -2.217669       -5.767864
  H  1.0           -2.049583       -3.179024       -6.617396
  O  8.0           -4.191311       -6.833548        9.762724
  H  1.0           -5.132077       -6.900001        9.725033
  H  1.0           -3.855893       -7.715486        9.739109
  O  8.0            5.316421        2.702814        1.266247
  H  1.0            4.700553        2.088974        0.899115
  H  1.0            5.014789        3.564930        1.028229
  O  8.0           -8.884128       -5.696814       -2.735458
  H  1.0           -8.305488       -6.218340       -3.268434
  H  1.0           -9.160561       -4.968256       -3.268061
  O  8.0            3.369491        2.979339       -0.237711
  H  1.0            3.354002        2.093281       -0.562578
  H  1.0            3.399680        3.544684       -0.992927
  O  8.0            3.922970        1.837768        4.931778
  H  1.0            4.160241        2.585565        4.407011
  H  1.0            3.929968        2.124234        5.831092
  O  8.0            7.920391       -8.679327       -4.153550
  H  1.0            8.348109       -8.626717       -4.993293
  H  1.0            7.226222       -8.039849       -4.162140
  O  8.0            6.442530        7.435506       -3.529259
  H  1.0            7.312752        7.074100       -3.583820
  H  1.0            6.517129        8.354262       -3.732240
  O  8.0           10.069442       -2.436047       -3.692772
  H  1.0           10.856427       -2.952203       -3.764290
  H  1.0            9.932885       -2.275662       -2.772714
  O  8.0           -1.110742       -5.416155        0.635627
  H  1.0           -1.740307       -4.734853        0.461404
  H  1.0           -1.593837       -6.225432        0.686304
  O  8.0            0.323060      -11.724978       -1.791020
  H  1.0            0.908100      -11.880658       -1.066886
  H  1.0           -0.516271      -12.077945       -1.542391
  O  8.0            8.318289        3.577670       -5.323873
  H  1.0            9.131901        3.457071       -4.860871
  H  1.0            8.491401        3.384545       -6.231404
  O  8.0           -4.238168        2.224497        9.436006
  H  1.0           -4.934042        2.375363        8.816427
  H  1.0           -3.741016        3.025265        9.485887
  O  8.0            0.932448       12.833061        1.866525
  H  1.0            1.404113       12.812023        1.049232
  H  1.0            0.089779       12.440317        1.703618
  O  8.0           -9.190940        7.424279        1.489937
  H  1.0           -9.905512        7.134264        0.945733
  H  1.0           -9.576071        7.846144        2.241325
  O  8.0            3.789790        3.848302      -11.539999
  H  1.0            3.407746        4.645270      -11.208695
  H  1.0            4.486317        3.614591      -10.947456
  O  8.0            5.597712       -6.291387        1.186306
  H  1.0            4.741155       -6.652955        1.023651
  H  1.0            5.465102       -5.415002        1.510718
  O  8.0            1.178252       -9.802006        3.019890
  H  1.0            1.647697      -10.354800        3.623975
  H  1.0            1.420834      -10.081611        2.151643
  O  8.0          -10.148890       -3.194849        4.950935
  H  1.0           -9.326290       -3.580553        4.695120
  H  1.0          -10.310682       -3.465995        5.840418
  O  8.0           10.280324        1.495000       -6.131223
  H  1.0           10.369529        0.618248       -6.469197
  H  1.0            9.786986        1.983376       -6.770743
  O  8.0            5.539570        0.968132       -0.862198
  H  1.0            5.275143        1.868002       -0.967987
  H  1.0            5.973967        0.909506       -0.026291
  O  8.0            5.886347        3.469103       -3.937122
  H  1.0            5.089460        3.301651       -4.414417
  H  1.0            5.633406        3.855083       -3.113764
  O  8.0           -3.725130        1.360915        6.627941
  H  1.0           -3.378634        2.225230        6.782141
  H  1.0           -4.661029        1.454024        6.548550
  O  8.0            7.890586        7.843800       -6.672440
  H  1.0            7.179019        8.456425       -6.768572
  H  1.0            7.856207        7.268605       -7.420001
  O  8.0            1.749672       -6.675569        8.255619
  H  1.0            1.001241       -6.406894        7.747147
  H  1.0            1.590325       -6.394253        9.142382
  O  8.0           -2.490438        3.329826      -10.270904
  H  1.0           -3.065317        2.626311      -10.015053
  H  1.0           -1.628193        3.101442       -9.962274
  O  8.0            0.161792       -5.010954       11.243054
  H  1.0            0.205533       -4.463661       12.010800
  H  1.0            1.011762       -5.409531       11.145246
  O  8.0           -1.980570        0.123233        5.961156
  H  1.0           -2.278341       -0.741083        6.196033
  H  1.0           -1.913684        0.140633        5.019826
  O  8.0            0.303906        6.254548      -10.365758
  H  1.0            0.343911        6.988713      -10.957603
  H  1.0            1.167995        6.153906       -9.999561
  O  8.0            2.472792        6.378564        8.203069
  H  1.0            2.116764        7.233024        8.387514
  H  1.0            1.739493        5.788402        8.133359
  O  8.0           -4.208885        9.963137       -4.779100
  H  1.0           -3.364446       10.303516       -5.027985
  H  1.0           -4.109937        9.028442       -4.692888
  O  8.0           -4.394644       -3.116786       -9.125226
  H  1.0           -4.518457       -3.748549       -9.815461
  H  1.0           -4.713402       -2.291014       -9.452903
  O  8.0            0.019155        1.456725       -8.331734
  H  1.0           -0.754651        1.630658       -8.843448
  H  1.0            0.753375        1.514296       -8.922061
  O  8.0           -1.695436      -10.395299        0.961580
  H  1.0           -1.869972      -11.319920        1.035675
  H  1.0           -1.422706      -10.101381        1.816044
  O  8.0            3.782215        1.894617       -3.918283
  H  1.0            3.406601        2.006059       -4.776987
  H  1.0            4.346612        1.139531       -3.964971
  O  8.0           -5.462475       -7.780446        3.692902
  H  1.0           -5.427406       -6.871144        3.943538
  H  1.0           -4.577779       -8.040725        3.491790
  O  8.0            5.102963        1.206286        7.133004
  H  1.0            5.273190        2.105136        7.365316
  H  1.0            5.810503        0.694744        7.491599
  O  8.0           -2.867216       -5.508228       10.762130
  H  1.0           -3.102419       -5.182555        9.908025
  H  1.0           -3.356995       -5.001509       11.390008
  O  8.0            8.447749        1.474098       -3.722734
  H  1.0            9.313328        1.628269       -4.066073
  H  1.0            8.502422        0.698727       -3.187300
  O  8.0            6.498176        4.823588        7.665794
  H  1.0            7.402133        4.623120        7.482624
  H  1.0            6.060655        3.999212        7.806715
  O  8.0            4.101881       -2.242351       -9.763636
  H  1.0            4.037944       -2.469662      -10.677485
  H  1.0            4.528000       -1.401157       -9.722498
  O  8.0            1.684298       -2.131698       -6.020960
  H  1.0            2.571906       -1.976460       -5.740011
  H  1.0            1.152123       -1.462825       -5.620614
  O  8.0           -0.466696       -6.318827       -2.852135
  H  1.0            0.346790       -6.789899       -2.767220
  H  1.0           -0.242593       -5.425455       -3.058393
  O  8.0           -2.549783       -3.038680        8.489148
  H  1.0           -3.252602       -3.499432        8.918836
  H  1.0           -2.077010       -3.678177        7.980810
  O  8.0           -2.812727        6.812223        1.678955
  H  1.0           -1.912743        6.948792        1.928464
  H  1.0           -2.799692        6.418355        0.821298
  O  8.0            3.141591       -5.200874       11.488743
  H  1.0            4.047148       -5.054028       11.266750
  H  1.0            2.691005       -4.384170       11.344369
  O  8.0           -2.740937       -5.532028        7.218663
  H  1.0           -3.443878       -5.090051        6.769877
  H  1.0           -3.141527       -6.100392        7.856918
  O  8.0            7.119449       -4.500717       -0.085556
  H  1.0            6.929061       -5.420178        0.010481
  H  1.0            6.514684       -4.164037       -0.727261
  O  8.0           -6.197090       -9.463961        2.976998
  H  1.0           -7.004925       -9.868836        3.249681
  H  1.0           -6.395159       -8.954643        2.207426
  O  8.0           -5.667255        8.480985       -2.291857
  H  1.0           -4.917786        9.050956       -2.357487
  H  1.0           -6.430807        9.035842       -2.291170
  O  8.0            8.477826       -1.980174       -8.954923
  H  1.0            8.211505       -2.022996       -9.859421
  H  1.0            9.201406       -1.375528       -8.913514
  O  8.0            0.955640        2.562791        5.443380
  H  1.0            1.435532        3.178362        4.912670
  H  1.0            1.124165        2.791470        6.343482
  O  8.0           -9.983461        3.081117       -2.059116
  H  1.0           -9.187669        3.461293       -2.395356
  H  1.0          -10.605993        3.785515       -1.974530
  O  8.0          -10.687974        5.757280       -1.875010
  H  1.0           -9.916018        5.910518       -1.353972
  H  1.0          -10.985653        6.601687       -2.173744
  O  8.0            9.316467       -4.732101        1.079213
  H  1.0            8.939250       -5.124227        0.307966
  H  1.0            9.406427       -3.810090        0.898432
  O  8.0            9.089430        5.906947       -0.469739
  H  1.0            9.756548        6.528395       -0.225538
  H  1.0            9.521767        5.075753       -0.584102
  O  8.0            5.791027        5.563881      -10.148649
  H  1.0            4.964018        5.692519      -10.584982
  H  1.0            5.930383        6.321115       -9.602705
  O  8.0           -1.473272       -7.580515        6.345395
  H  1.0           -2.342164       -7.217442        6.281503
  H  1.0           -1.131687       -7.622939        5.466533
  O  8.0           -3.304106       -2.022219       -3.092726
  H  1.0           -3.456336       -1.441891       -2.364082
  H  1.0           -2.536217       -2.528393       -2.880565
  O  8.0           -4.392134      -10.336559       -3.016848
  H  1.0           -4.726020      -11.211551       -2.899426
  H  1.0           -3.641768      -10.254217       -2.450237
  O  8.0            4.512722      -10.690894       -4.531797
  H  1.0            5.426627      -10.924554       -4.499273
  H  1.0            4.025252      -11.498883       -4.511677
  O  8.0           -8.806316       -4.912669       -7.655769
  H  1.0           -8.457739       -5.686189       -8.069336
  H  1.0           -8.671244       -5.017096       -6.727475
  O  8.0           -0.775396       -8.999883       -2.263063
  H  1.0           -0.932071       -8.972837       -3.193439
  H  1.0           -1.611046       -8.871627       -1.843399
  O  8.0            9.541863       -3.429506       -7.266360
  H  1.0            9.453261       -3.522872       -8.201406
  H  1.0            9.767078       -2.527411       -7.103937
  O  8.0            0.860811       -2.017017        1.272329
  H  1.0            0.076576       -2.308500        0.835418
  H  1.0            1.525226       -1.929837        0.607626
  O  8.0            3.624236       -2.349281       -7.407895
  H  1.0            4.419477       -2.600766       -7.849739
  H  1.0            3.156595       -3.146458       -7.216328
  O  8.0           -1.687627       -2.688608        3.947086
  H  1.0           -1.459691       -1.868241        4.354420
  H  1.0           -0.932409       -2.965319        3.453168
  O  8.0           -8.535889        2.954191        7.501798
  H  1.0           -9.434668        2.686257        7.608037
  H  1.0           -8.018108        2.165264        7.482394
  O  8.0            7.371934       -3.077723        2.005691
  H  1.0            8.138497       -2.530629        1.942869
  H  1.0            7.636403       -3.946026        1.746881
  O  8.0            9.336408        3.583664       -2.141283
  H  1.0            8.881392        2.769822       -2.287915
  H  1.0            9.583781        3.912991       -2.990535
  O  8.0            5.863114        9.090288        4.537192
  H  1.0            6.562958        9.575372        4.944366
  H  1.0            5.747326        8.303183        5.045067
  O  8.0           -4.793171        5.386094        1.476886
  H  1.0           -3.960170        4.943678        1.441458
  H  1.0           -4.685396        6.121154        2.059079
  O  8.0           -8.396027        5.046910        5.387913
  H  1.0           -7.544144        5.408108        5.574217
  H  1.0           -9.001799        5.770691        5.380218
  O  8.0            5.796888        2.153315       -9.493715
  H  1.0            6.018979        2.097568      -10.409382
  H  1.0            5.976631        1.305919       -9.118894
  O  8.0           -1.953236       -2.507556       -9.303221
  H  1.0           -2.256533       -3.398457       -9.375222
  H  1.0           -1.906941       -2.310414       -8.381337
  O  8.0           -5.817111       -7.686639       -5.042516
  H  1.0           -5.444289       -8.542164       -4.901240
  H  1.0           -5.646794       -7.184212       -4.261851
  O  8.0           -7.259870        3.889560       -8.070320
  H  1.0           -7.188280        4.703269       -8.543215
  H  1.0           -6.379013        3.596955       -7.898997
  O  8.0            0.101752       -1.596070       -1.445996
  H  1.0           -0.597638       -1.146124       -1.892404
  H  1.0            0.316516       -1.078062       -0.686772
  O  8.0           -0.251820        1.443876       -5.430004
  H  1.0            0.312395        0.687650       -5.455739
  H  1.0            0.283999        2.173106       -5.161674
  O  8.0           -1.388060        3.553443       -7.865533
  H  1.0           -1.242450        4.482933       -7.789874
  H  1.0           -0.628796        3.129183       -7.498926
  O  8.0            8.550912       -8.527650       -1.577670
  H  1.0            9.041697       -7.914362       -1.054329
  H  1.0            9.171386       -8.959295       -2.142978
  O  8.0            3.615760       -1.994423        2.198179
  H  1.0            2.758884       -2.389842        2.181268
  H  1.0            4.240907       -2.701580        2.198310
  O  8.0            6.072164        4.656986       -8.086299
  H  1.0            6.031568        3.944543       -8.704081
  H  1.0            5.215290        5.052497       -8.071634
  O  8.0           -6.216472        0.509282        8.487692
  H  1.0           -5.381691        0.326372        8.888395
  H  1.0           -6.862295        0.018112        8.969919
  O  8.0           -7.620532        1.298723       -1.747509
  H  1.0           -8.348828        1.870652       -1.564856
  H  1.0           -7.985084        0.453601       -1.956669
  O  8.0            4.682957       -0.099166        8.908595