 $SYSTEM MWORDS=3500 $END
 $CONTRL nprint=-5 SCFTYP=RHF MULT=1 ICHARG=0 ISPHER=1  $END
 $CONTRL RUNTYP=ENERGY MAXIT=2 $END
 $SCF DIRSCF=.T. FDIFF=.F. $END
 $BASIS GBASIS=N311 NGAUSS=6 NDFUNC=1 NPFUNC=1 $END
 $DATA
 0600w_6311++Gdp.inp basis 6311++Gdp
 C1 
  O  8.0            8.634371        7.767688       -7.711696
  H  1.0            8.657510        6.994312       -7.171111
  H  1.0            7.922776        8.299905       -7.393488
  O  8.0            1.581983       -7.112193        8.385371
  H  1.0            0.695203       -6.952797        8.104138
  H  1.0            1.642777       -8.033332        8.582059
  O  8.0           -3.308413        2.732807      -11.344805
  H  1.0           -2.847383        2.000020      -10.968835
  H  1.0           -3.065528        3.493345      -10.841350
  O  8.0            0.405637       -5.543736       12.437990
  H  1.0            1.308196       -5.814383       12.383076
  H  1.0            0.410475       -4.627575       12.664934
  O  8.0           -1.467331        0.017576        6.474351
  H  1.0           -1.409418        0.437422        5.630993
  H  1.0           -2.276325        0.305829        6.865909
  O  8.0            0.523312        6.694733      -11.759764
  H  1.0            0.493876        7.610863      -11.534558
  H  1.0            0.883464        6.243288      -11.013195
  O  8.0            1.856399        7.312283        8.706699
  H  1.0            2.735609        7.230465        8.373272
  H  1.0            1.592939        6.451710        8.991096
  O  8.0           -4.087501       10.024946       -4.861070
  H  1.0           -4.847201       10.520552       -5.122050
  H  1.0           -4.075655        9.245912       -5.393839
  O  8.0           -5.917663       -2.398136      -10.127155
  H  1.0           -5.371631       -2.029458      -10.803027
  H  1.0           -5.658232       -3.300533      -10.030960
  O  8.0            0.605256        1.153417       -9.650949
  H  1.0            1.326204        0.600484       -9.906637
  H  1.0            0.648849        1.924345      -10.193765
  O  8.0           -1.860342      -11.585095        0.742599
  H  1.0           -1.846033      -12.015457        1.582516
  H  1.0           -1.909666      -10.658151        0.913539
  O  8.0            5.093574        2.237674       -4.080360
  H  1.0            4.761237        1.688878       -3.388079
  H  1.0            5.231571        1.677934       -4.827706
  O  8.0           -4.831846       -6.740625        4.179070
  H  1.0           -4.210634       -7.429807        4.005863
  H  1.0           -4.368484       -5.925053        4.074107
  O  8.0            6.135131        1.818148        8.433901
  H  1.0            6.625972        2.554599        8.105887
  H  1.0            6.594379        1.041258        8.157475
  O  8.0           -3.398840       -6.053448       11.724319
  H  1.0           -3.431373       -6.818989       11.173168
  H  1.0           -3.136937       -5.333335       11.173208
  O  8.0           10.072499        1.088514       -2.870634
  H  1.0            9.716489        1.066151       -3.744496
  H  1.0            9.559200        1.713883       -2.384509
  O  8.0            8.361260        4.577680        8.943996
  H  1.0            7.442515        4.417265        8.798901
  H  1.0            8.515621        5.483796        8.729507
  O  8.0            4.631576       -2.333917      -11.620335
  H  1.0            5.520053       -2.573621      -11.830166
  H  1.0            4.624688       -2.089212      -10.708770
  O  8.0            1.418342       -1.124066       -6.463846
  H  1.0            1.511887       -0.866235       -5.560712
  H  1.0            1.761523       -2.000633       -6.532660
  O  8.0            0.571106       -6.460183       -3.175873
  H  1.0           -0.281627       -6.056037       -3.156139
  H  1.0            0.430716       -7.392311       -3.127834
  O  8.0           -2.751834       -3.784259        8.406070
  H  1.0           -3.342564       -3.640970        9.128139
  H  1.0           -2.032648       -4.295425        8.741269
  O  8.0           -1.639550        7.608334        1.606508
  H  1.0           -2.020833        6.818088        1.258640
  H  1.0           -2.256627        8.303044        1.440761
  O  8.0            4.153587       -4.459687       11.932760
  H  1.0            4.356595       -5.349932       12.171778
  H  1.0            4.204913       -3.947886       12.724153
  O  8.0           -3.123859       -6.038857        8.466583
  H  1.0           -3.465228       -5.611182        9.235634
  H  1.0           -3.829338       -6.074997        7.840586
  O  8.0            7.232638       -4.492170        0.327657
  H  1.0            8.132522       -4.755184        0.218520
  H  1.0            7.233561       -3.552543        0.416976
  O  8.0           -6.657577       -9.251837        3.080154
  H  1.0           -6.620018      -10.065504        2.603275
  H  1.0           -7.406966       -9.306529        3.651383
  O  8.0           -5.866927        8.606345       -2.097957
  H  1.0           -6.448137        9.345885       -2.019506
  H  1.0           -4.991413        8.954277       -2.155371
  O  8.0            8.552883       -2.183148       -9.811447
  H  1.0            8.982176       -1.356913       -9.966113
  H  1.0            8.985211       -2.819945      -10.357762
  O  8.0            1.078222        1.906694        5.817964
  H  1.0            0.630505        1.284996        5.266675
  H  1.0            1.308249        1.449605        6.611081
  O  8.0          -10.831185        3.053885       -1.813365
  H  1.0          -11.349003        2.736768       -2.535985
  H  1.0           -9.928257        2.889974       -2.034118
  O  8.0           -2.395183        6.413089       11.402881
  H  1.0           -1.596999        6.912593       11.337480
  H  1.0           -2.459460        6.120375       12.297903
  O  8.0          -11.604007        7.083451       -2.093694
  H  1.0          -11.555253        6.246833       -1.659445
  H  1.0          -10.872600        7.123153       -2.688964
  O  8.0           10.047897       -4.806479        0.747586
  H  1.0            9.631145       -5.445616        1.303194
  H  1.0           10.978763       -4.931017        0.841701
  O  8.0           10.297236        4.813740       -0.196577
  H  1.0           11.066992        5.075391       -0.676048
  H  1.0           10.077319        5.531209        0.375920
  O  8.0           -0.534080       -8.590120        5.696605
  H  1.0           -1.099372       -7.947554        6.094640
  H  1.0           -1.072684       -9.339297        5.497816
  O  8.0           -2.390215       -2.795855       -2.983447
  H  1.0           -2.394202       -2.300746       -2.179874
  H  1.0           -3.235891       -2.670584       -3.383468
  O  8.0           -4.487540      -11.457151       -3.266380
  H  1.0           -4.629704      -11.001906       -2.451874
  H  1.0           -3.747519      -11.044466       -3.682239
  O  8.0            5.094685      -11.683150       -5.198591
  H  1.0            4.393983      -12.295713       -5.041549
  H  1.0            5.760498      -11.861455       -4.553783
  O  8.0           -8.978526       -6.132509       -8.439660
  H  1.0           -8.833918       -7.046495       -8.253659
  H  1.0           -9.279828       -5.736784       -7.637478
  O  8.0           -1.158903      -10.511294       -2.273952
  H  1.0           -0.472305      -10.405015       -1.635073
  H  1.0           -0.991834      -11.326925       -2.718600
  O  8.0           10.095969       -3.602618       -8.477338
  H  1.0            9.231206       -3.264322       -8.308165
  H  1.0           10.655752       -2.856471       -8.621514
  O  8.0            1.381705       -2.825311        0.324939
  H  1.0            0.611582       -3.366578        0.255532
  H  1.0            1.080602       -1.941799        0.465017
  O  8.0            4.381698       -3.339878       -8.902114
  H  1.0            3.804732       -2.602073       -8.785356
  H  1.0            5.243292       -2.988204       -9.059779
  O  8.0           -1.275482       -3.137351        3.972555
  H  1.0           -1.619262       -2.474254        3.395497
  H  1.0           -0.522936       -2.761086        4.400314
  O  8.0           -8.653997        2.434850        7.157325
  H  1.0           -8.070633        3.171591        7.069134
  H  1.0           -8.130906        1.658601        7.036111
  O  8.0            9.043918       -2.208859        2.172508
  H  1.0            8.343474       -2.833093        2.069608
  H  1.0            8.640053       -1.360882        2.265813
  O  8.0            9.680951        3.318752       -3.689783
  H  1.0            9.875098        4.231032       -3.834452
  H  1.0           10.508498        2.865325       -3.668596
  O  8.0            5.867523        9.013897        5.656911
  H  1.0            6.725717        8.652628        5.502421
  H  1.0            5.980292        9.734195        6.256355
  O  8.0           -4.904351        6.346146        1.739534
  H  1.0           -5.458507        5.932060        1.097411
  H  1.0           -5.174590        7.249131        1.789203
  O  8.0           -9.482073        5.594709        6.108086
  H  1.0          -10.245802        5.040763        6.135303
  H  1.0           -8.732030        5.021990        6.090539
  O  8.0            7.361772        1.066955       -9.200929
  H  1.0            6.686978        1.713068       -9.335349
  H  1.0            7.328146        0.481649       -9.940636
  O  8.0           -1.129908       -2.337695      -10.169313
  H  1.0           -1.826252       -2.971967      -10.229992
  H  1.0           -0.320204       -2.822723      -10.171636
  O  8.0           -5.693913       -8.190747       -5.498072
  H  1.0           -5.730546       -7.247595       -5.497677
  H  1.0           -6.586742       -8.496910       -5.498457
  O  8.0           -7.583400        4.507192       -8.175242
  H  1.0           -6.751538        4.168288       -8.465119
  H  1.0           -7.976349        3.838320       -7.637581
  O  8.0           -0.586553       -1.328483       -0.372369
  H  1.0           -1.433120       -0.959152       -0.177958
  H  1.0           -0.643280       -1.694900       -1.240355
  O  8.0           -0.390122        1.010242       -5.792942
  H  1.0           -0.488146        0.071496       -5.798026
  H  1.0           -1.261076        1.373900       -5.784545
  O  8.0           -0.998618        4.390831       -8.302438
  H  1.0           -1.301420        5.212418       -8.654836
  H  1.0           -0.382261        4.039355       -8.924890
  O  8.0            9.841688       -9.397028       -1.894677
  H  1.0           10.447280       -9.222142       -1.192145
  H  1.0           10.223838       -9.035806       -2.678487
  O  8.0            3.903411       -4.341820        2.024218
  H  1.0            3.663445       -4.624560        2.892176
  H  1.0            4.002569       -3.403946        2.062142
  O  8.0            7.215776        4.205309       -8.924223
  H  1.0            7.702709        3.457828       -8.615926
  H  1.0            6.369458        3.885572       -9.193278
  O  8.0           -5.935670        0.118614        9.768216
  H  1.0           -6.442915        0.709400        9.234780
  H  1.0           -5.901511       -0.703310        9.305449
  O  8.0           -7.407329        1.550649       -1.665905
  H  1.0           -8.114379        2.102789       -1.959332
  H  1.0           -7.680561        0.659156       -1.812411
  O  8.0            4.586237       -0.513625        9.732050
  H  1.0            5.526114       -0.560480        9.659154
  H  1.0            4.282170       -1.393186        9.889514
  O  8.0           -5.875657       -2.541490        0.580225
  H  1.0           -6.092385       -3.433620        0.799340
  H  1.0           -5.428817       -2.179237        1.328547
  O  8.0           -7.527069        5.350144        8.609337
  H  1.0           -7.525308        4.408339        8.547063
  H  1.0           -7.040065        5.671971        7.867628
  O  8.0           10.661353       -0.140790        4.173473
  H  1.0           10.826936        0.701534        3.781106
  H  1.0           10.323526       -0.696868        3.489713
  O  8.0           -2.293972       10.813415       -3.920481
  H  1.0           -2.631794       11.204653       -3.130742
  H  1.0           -2.622720       11.327960       -4.640236
  O  8.0            1.028517       -0.255151      -13.232907
  H  1.0            0.175812       -0.579674      -12.991128
  H  1.0            1.570417       -1.010767      -13.394977
  O  8.0           -0.211491       -9.195458        3.073422
  H  1.0           -0.337974       -8.956348        2.169151
  H  1.0            0.720746       -9.234410        3.215886
  O  8.0            9.515483       -1.336863       -1.883694
  H  1.0            9.192396       -0.672010       -2.470605
  H  1.0            8.790820       -1.913656       -1.701896
  O  8.0           -6.437014        4.254556       -1.127346
  H  1.0           -5.608224        4.693873       -1.022527
  H  1.0           -6.286694        3.527055       -1.709605
  O  8.0          -13.218686        0.789567        3.085138
  H  1.0          -12.313538        1.022074        3.217524
  H  1.0          -13.465286        0.236204        3.808917
  O  8.0            6.888377        1.648167       -7.355934
  H  1.0            6.586131        1.422277       -6.490776
  H  1.0            7.790215        1.912378       -7.267849
  O  8.0          -11.999593       -1.481347       -2.219869
  H  1.0          -11.063176       -1.593531       -2.257489
  H  1.0          -12.381838       -2.279591       -2.547854
  O  8.0           -0.699178       -0.290914       13.978059
  H  1.0            0.041951       -0.849727       13.806786
  H  1.0           -1.438371       -0.677794       13.536702
  O  8.0           -0.102793       11.952128       -2.228170
  H  1.0            0.596491       11.320647       -2.172389
  H  1.0           -0.910960       11.466903       -2.180202
  O  8.0            2.495187       -4.985503        0.071001
  H  1.0            1.998429       -5.762363       -0.130491
  H  1.0            3.339578       -5.275318        0.377412
  O  8.0           -9.808847        3.713747       -6.897414
  H  1.0          -10.379420        4.465606       -6.891685
  H  1.0           -9.884396        3.309383       -6.047908
  O  8.0            0.402566        9.460607        1.051806
  H  1.0            1.105756       10.089535        1.022621
  H  1.0            0.799221        8.616803        1.198564
  O  8.0           -5.428673       -5.511954        1.231114
  H  1.0           -5.510544       -6.343837        0.792771
  H  1.0           -5.813942       -5.616889        2.086353
  O  8.0            9.372252        1.212095        6.331015
  H  1.0            8.886311        1.358314        7.126853
  H  1.0            9.218038        0.315426        6.079857
  O  8.0            2.095598        5.303784       12.422417
  H  1.0            2.252395        5.645919       11.556832
  H  1.0            1.167024        5.372322       12.577113
  O  8.0            7.342487       -3.864508      -11.237517
  H  1.0            6.562684       -4.236884      -11.617149
  H  1.0            7.066853       -3.119739      -10.727396
  O  8.0           10.347172       -8.267758       -4.521135
  H  1.0           10.548957       -7.560116       -3.930031
  H  1.0            9.974179       -7.876797       -5.295023
  O  8.0           -5.562376       11.009279        2.727214
  H  1.0           -4.941679       11.708794        2.599568
  H  1.0           -5.142115       10.216762        2.433658
  O  8.0            6.170893       -1.702102        5.062360
  H  1.0            5.609469       -2.336177        5.479050
  H  1.0            5.959239       -0.863102        5.439402
  O  8.0            4.235649        6.065756        7.928742
  H  1.0            4.833908        6.795769        7.922006
  H  1.0            4.000498        5.899423        7.029901
  O  8.0            3.566939       -2.242857       -0.763564
  H  1.0            2.849751       -1.744086       -0.406146
  H  1.0            4.351756       -1.744455       -0.600669
  O  8.0           -3.414510        3.336025        3.525025
  H  1.0           -3.122059        2.452398        3.368328
  H  1.0           -2.670396        3.813469        3.855509
  O  8.0           -4.338221       -2.912571       -5.981351
  H  1.0           -3.702336       -3.608844       -6.022979
  H  1.0           -5.131307       -3.245911       -6.369651
  O  8.0            2.059036        2.416300      -11.500365
  H  1.0            2.079226        1.489641      -11.678620
  H  1.0            2.642228        2.565478      -10.773378
  O  8.0           -0.214011       -2.809391        6.847571
  H  1.0           -0.886510       -3.179300        6.298216
  H  1.0            0.569469       -2.762940        6.323282
  O  8.0            5.167523       -3.695475       -0.985671
  H  1.0            5.553684       -4.430988       -1.433753
  H  1.0            5.848355       -3.048996       -0.888660
  O  8.0            7.007317        0.793753       -2.921307
  H  1.0            7.875302        1.104091       -3.124211
  H  1.0            6.477471        0.950260       -3.686583
  O  8.0           -1.387569        7.894992      -10.910665
  H  1.0           -1.926704        7.131340      -11.041228
  H  1.0           -1.910359        8.517338      -10.430817
  O  8.0           -2.176909        1.582836       -0.713662
  H  1.0           -2.665097        0.794905       -0.891749
  H  1.0           -2.063510        1.625983        0.222370
  O  8.0           -0.722900        0.965831       -1.872022
  H  1.0           -0.255530        0.362461       -1.316695
  H  1.0           -0.071808        1.466346       -2.337256
  O  8.0            0.133937        1.875991      -13.534304
  H  1.0            1.062357        1.735403      -13.438648
  H  1.0           -0.215725        1.104647      -13.951009
  O  8.0           -0.158369        8.870666       -5.773327
  H  1.0            0.550762        8.766502       -5.159193
  H  1.0           -0.943306        8.991826       -5.263354
  O  8.0            4.948132        9.651473       -0.660018
  H  1.0            4.974093        9.237206        0.187677
  H  1.0            5.507840       10.409739       -0.608653
  O  8.0            5.442405        1.810533      -11.233857
  H  1.0            6.191864        2.095759      -11.731687
  H  1.0            5.659799        0.964128      -10.877183
  O  8.0           -4.108276        7.032175       -8.490474
  H  1.0           -3.489994        6.702078       -9.122647
  H  1.0           -4.198322        7.956966       -8.656397
  O  8.0           -3.370697       -4.125384       -7.918917
  H  1.0           -4.043470       -4.780999       -8.010701
  H  1.0           -2.620067       -4.557604       -7.543925
  O  8.0           -2.213694       -1.384211       -4.497688
  H  1.0           -1.891929       -0.664165       -3.979151
  H  1.0           -1.775819       -1.334410       -5.332352
  O  8.0            6.682681       11.480954        0.591412
  H  1.0            6.841164       12.205338        0.007435
  H  1.0            7.375555       11.492513        1.232248
  O  8.0            8.544152        4.472938       -1.047541
  H  1.0            8.757366        4.629109       -1.953648
  H  1.0            7.604856        4.393511       -0.999670
  O  8.0           -4.757337       -8.780850        8.052202
  H  1.0           -4.154522       -9.493924        8.190111
  H  1.0           -4.299240       -8.133489        7.540394
  O  8.0            3.140855       -2.107437       -4.662479
  H  1.0            2.471732       -2.746067       -4.850377
  H  1.0            2.739747       -1.444999       -4.122880
  O  8.0            6.410845        4.149733       -6.783938
  H  1.0            7.012196        4.839169       -7.016174
  H  1.0            6.925737        3.459267       -6.397907
  O  8.0            1.172152       -4.373615        8.137567
  H  1.0            1.127159       -5.110264        7.549178
  H  1.0            0.282551       -4.146593        8.356541
  O  8.0            1.584188        2.640877       12.997117
  H  1.0            1.047344        2.186024       12.368002
  H  1.0            1.183705        3.484180       13.136153
  O  8.0            1.942650        9.588452        5.216612
  H  1.0            2.717581       10.065847        4.966701
  H  1.0            1.804232        8.930179        4.554498
  O  8.0           -0.119289       -2.378004      -12.217117
  H  1.0            0.204467       -3.255098      -12.346607
  H  1.0           -1.060398       -2.439096      -12.178920
  O  8.0           -3.275161        9.287559       -1.226128
  H  1.0           -2.654353        9.656710       -1.833749
  H  1.0           -2.900055        8.480481       -0.911807
  O  8.0            9.450223       -7.434205        1.268987
  H  1.0            9.398500       -8.369539        1.384545
  H  1.0            8.600619       -7.086381        1.488234
  O  8.0           11.602029       -7.818108       -0.408811
  H  1.0           11.088384       -7.279454       -0.989241
  H  1.0           11.031572       -8.076473        0.297380
  O  8.0           -1.752763       -9.703408        9.341555
  H  1.0           -2.575970      -10.160750        9.277940
  H  1.0           -1.076639      -10.361920        9.351420
  O  8.0            6.585767       -9.118691       -6.790953
  H  1.0            6.070783       -9.860956       -7.064289
  H  1.0            7.416642       -9.457862       -6.498570
  O  8.0           -8.685811       -8.904563       -1.050009
  H  1.0           -9.360050       -9.559096       -0.961314
  H  1.0           -9.124277       -8.072621       -1.130616
  O  8.0           -1.720209        1.001532        8.633361
  H  1.0           -1.722833        0.154155        9.049081
  H  1.0           -0.873487        1.383374        8.801106
  O  8.0            0.571051        9.738540        6.840893
  H  1.0           -0.351144        9.811891        6.653663
  H  1.0            0.770968        8.816345        6.862505
  O  8.0            7.833280        0.692748        3.696597
  H  1.0            7.663148        1.526197        3.287579
  H  1.0            8.768323        0.632136        3.810172
  O  8.0            3.853581        2.964483        1.976490
  H  1.0            3.480972        3.361336        2.747560
  H  1.0            3.176622        2.430914        1.591901
  O  8.0           12.734272        3.189062       -3.231968
  H  1.0           13.321506        2.480583       -3.441952
  H  1.0           12.128487        2.857640       -2.588492
  O  8.0            7.272199       -3.475600       -8.472568
  H  1.0            6.656697       -3.443987       -7.757700
  H  1.0            7.036307       -4.221340       -9.000872
  O  8.0            3.996141       -8.929561        2.574280
  H  1.0            3.416695       -8.442955        3.138492
  H  1.0            3.937300       -9.833455        2.839594
  O  8.0           -5.106791       -2.657041       -1.380320
  H  1.0           -6.010660       -2.835597       -1.585298
  H  1.0           -5.073456       -1.774722       -1.046730
  O  8.0            3.806539        4.532318        9.270298
  H  1.0            3.115500        4.304506        8.669096
  H  1.0            3.574021        5.365612        9.647703
  O  8.0           -0.341484        8.975999       -3.212880
  H  1.0            0.278619        9.687396       -3.229142
  H  1.0           -1.199425        9.365227       -3.155285
  O  8.0           -6.663807        0.784912       -8.806304
  H  1.0           -6.483223        1.348289       -8.070862
  H  1.0           -7.540705        0.985034       -9.092448
  O  8.0            6.154974       -7.990523        7.858015
  H  1.0            6.816027       -7.489110        7.408045
  H  1.0            5.405851       -8.027750        7.285035
  O  8.0            1.201433        4.397162       -7.382346
  H  1.0            1.158301        5.338786       -7.430938
  H  1.0            2.109619        4.161534       -7.485092
  O  8.0           -4.359077        4.951325      -11.229252
  H  1.0           -4.767351        5.802290      -11.222289
  H  1.0           -5.056818        4.315696      -11.232605
  O  8.0            7.613172       -8.461228        0.282728
  H  1.0            8.005860       -9.316413        0.355756
  H  1.0            6.829509       -8.565692       -0.232865
  O  8.0           -0.754760       -0.908156       -7.775478
  H  1.0           -0.278084       -0.093581       -7.786656
  H  1.0           -0.121907       -1.590680       -7.618837
  O  8.0            1.215521       -9.163949        6.432858
  H  1.0            0.952201       -9.879229        5.876159
  H  1.0            1.165584       -9.478978        7.321194
  O  8.0           -3.259015      -12.699096       -0.112688
  H  1.0           -3.129273      -13.582792        0.192478
  H  1.0           -4.069403      -12.695422       -0.596565
  O  8.0            7.341493       -9.935177       -4.589035
  H  1.0            7.613651      -10.649760       -4.035699
  H  1.0            6.401614       -9.881905       -4.520702
  O  8.0           -4.136148        2.091836       -3.326607
  H  1.0           -3.589253        1.681089       -2.676167
  H  1.0           -3.614948        2.169077       -4.109718
  O  8.0            9.648588        4.752385       -8.854842
  H  1.0            9.926437        3.853112       -8.784220
  H  1.0            9.011587        4.785667       -9.550543
  O  8.0           -6.031893       -0.914265        6.673665
  H  1.0           -6.334809       -0.046116        6.460506
  H  1.0           -5.091749       -0.864618        6.741073
  O  8.0            7.003205        0.426777       11.429469
  H  1.0            7.299274        1.315686       11.543763
  H  1.0            7.718334       -0.132629       11.687409
  O  8.0            4.837398       -8.304948       -7.592655
  H  1.0            4.016899       -7.846619       -7.505511
  H  1.0            4.736254       -8.907966       -8.311694
  O  8.0           -0.700760        7.072878       -4.835582
  H  1.0           -0.073691        7.187586       -4.139518
  H  1.0           -0.865665        6.145917       -4.902121
  O  8.0            0.460276       -5.451165        4.565635
  H  1.0           -0.043005       -5.923556        5.209400
  H  1.0            0.287075       -4.533938        4.705546
  O  8.0           -7.488060       -1.520367        0.047709
  H  1.0           -7.203942       -0.868647       -0.573110
  H  1.0           -8.317860       -1.846534       -0.262009
  O  8.0            2.125016       -8.366455       -7.763401
  H  1.0            1.704677       -9.110337       -7.362361
  H  1.0            1.442236       -7.749349       -7.972850
  O  8.0            4.145556       -2.578619       -3.014560
  H  1.0            3.933232       -3.486573       -3.160908
  H  1.0            4.984535       -2.562456       -2.582434
  O  8.0           12.482513       -4.982476       -1.629228
  H  1.0           11.755715       -5.445370       -1.244038
  H  1.0           12.169838       -4.118660       -1.845869
  O  8.0           11.835370        4.840151       -2.535017
  H  1.0           11.309381        5.623602       -2.555453
  H  1.0           12.724679        5.105913       -2.706422
  O  8.0           10.773100       -6.639729        2.807832
  H  1.0           10.272264       -6.653529        3.607739
  H  1.0           10.927515       -7.539695        2.568886
  O  8.0          -11.028755        5.401180        1.235287
  H  1.0          -11.966553        5.294977        1.246885
  H  1.0          -10.657077        4.534488        1.275012
  O  8.0            4.404898        4.023734       -3.227405
  H  1.0            4.010142        4.866043       -3.067530
  H  1.0            5.215070        4.186038       -3.683647
  O  8.0           -2.723408        6.353313       -0.541703
  H  1.0           -3.544496        6.536118       -0.113597
  H  1.0           -2.410194        5.535414       -0.189827
  O  8.0           -4.418111        3.219156       -9.323978
  H  1.0           -3.582427        2.897626       -9.025433
  H  1.0           -4.966204        3.300454       -8.559869
  O  8.0           -6.878345       -8.837955        0.400885
  H  1.0           -6.018148       -9.224794        0.436861
  H  1.0           -7.431305       -9.353048        0.966387
  O  8.0            2.554216       -6.998050        1.311043
  H  1.0            1.736685       -7.121435        1.766344
  H  1.0            2.666948       -7.747200        0.748066
  O  8.0            9.308081        4.617778       -6.119995
  H  1.0            9.274080        5.074967       -6.945040
  H  1.0            8.419985        4.382918       -5.903192
  O  8.0           -6.965724        0.752847       -6.257750
  H  1.0           -7.195531        1.668293       -6.262992
  H  1.0           -7.262696        0.403319       -5.432816
  O  8.0            2.474387       -8.181600       -9.977816
  H  1.0            3.166559       -8.686676       -9.581993
  H  1.0            2.504720       -7.324389       -9.583929
  O  8.0           -3.202269       -7.497345        5.885293
  H  1.0           -3.973141       -6.963257        5.991992
  H  1.0           -2.684797       -7.094282        5.206587
  O  8.0           -1.201031        4.044921        2.554158
  H  1.0           -1.157911        4.906494        2.937186
  H  1.0           -1.357555        4.165857        1.631253
  O  8.0           10.465502        0.063662        0.943831