!    Harmonically Constrained RHF geometry optimization
!
!    With RHF/6-31G** the O-O-H angle in H2O2 is 100.9 degree.
!    This test adds a harmonic constraint to this angle
!    alpha0 = 90.0 degree, force-constant 500 kcal*mol^-1*radian^-2
! NSERCH:   0  E=     -150.7470302200  GRAD. MAX=  0.1618632  R.M.S.=  0.0866575
! NSERCH:   1  E=     -150.7527475787  GRAD. MAX=  0.1517320  R.M.S.=  0.0738454
! NSERCH:   2  E=     -150.7710009364  GRAD. MAX=  0.0207186  R.M.S.=  0.0115648
! NSERCH:   3  E=     -150.7707126879  GRAD. MAX=  0.0203340  R.M.S.=  0.0115779
! NSERCH:   4  E=     -150.7716597340  GRAD. MAX=  0.0027661  R.M.S.=  0.0013858
! NSERCH:   5  E=     -150.7716853594  GRAD. MAX=  0.0010644  R.M.S.=  0.0005026
! NSERCH:   6  E=     -150.7716868962  GRAD. MAX=  0.0005466  R.M.S.=  0.0002683
! NSERCH:   7  E=     -150.7716872687  GRAD. MAX=  0.0001172  R.M.S.=  0.0000521
! NSERCH:   8  E=     -150.7716872818  GRAD. MAX=  0.0000546  R.M.S.=  0.0000230
!    The angle with this constraint ends up being 91.5 degree
!
!    The energy values above contain the constraining energy,
!    so one could also check that the last geometry's quantum
!    energy is -150.7722253521 a.u.
!
 $CONTRL SCFTYP=RHF RUNTYP=OPTIMIZE $END
 $BASIS  GBASIS=n31 NGAUSS=6 NPFUNC=1 NDFUNC=1 $END
 $STATPT OPTTOL=0.0001 NSTEP=20
         IHMCON(1)=2,1,2,4
         SHMCON(1)=90.0
         FHMCON(1)=500.0
 $END
 $DATA
hydrogen peroxide molecule
C1
O       8.0    -0.698526391     -0.072897628      0.000000000
O       8.0     0.698526391      0.072897628      0.000000000
H       1.0    -0.971683217      0.831702846      0.000000000
H       1.0     0.971683215     -0.831702847      0.000000000
 $END

! TRAVIS-CI SMALL

! TRAVIS-CI SKIP
