 $CONTRL SCFTYP=ROHF RUNTYP=GRADNAC DFTTYP=BHHLYP ICHARG=0
         TDDFT=MRSF   MAXIT=200 MULT=3 NPRINT=7 COORD=UNIQUE     $END
 $DFT SG1=.T.                                                    $END
 $scf  dirscf=.f. nconv=6 npunch=2                               $END
 $TDDFT NSTATE=4 IROOT=2 TAMMD=.t. MULT=1                        $END
 $BASIS GBASIS=N31 NGAUSS=6                                      $END
 $system timlim=999999100 mwords=500                             $END
 $GUESS GUESS=MOREAD NORB=26                                     $END
 $data
 BUTADIENE
 C1
C           6.0        1.6061813124        1.5137823403       -1.8532304826
C           6.0        1.8297205990        2.1532622299       -2.9306336720
H           1.0        0.7837299323        1.8554701101       -1.2254340077
H           1.0        2.0660759361        0.5856132304       -1.5511271763
H           1.0        1.3951698698        3.0534395286       -3.1447814659
H           1.0        2.3888191426        1.8772741027       -3.7592528319
 $END
 $VEC
 1  1 9.93471242E-01 3.15101138E-02-6.14798547E-05 4.51415341E-04-9.22832185E-04
 1  2-2.40945995E-02 5.34971985E-05-1.72808555E-03 2.61604942E-03 6.19633173E-02
 1  3 7.85835875E-05 2.01909669E-04 5.89138436E-04-9.81351115E-04 8.59043581E-03
 1  4-8.98842758E-04-2.22165109E-03 3.87270141E-03-6.17641915E-04 4.15254046E-03
 1  5-7.08093848E-04 3.68505811E-03-2.63494513E-04 4.61551754E-04-2.99592615E-04
 1  6 6.41039183E-04
 2  1-6.26264346E-02-3.87738538E-03-1.87687353E-04-6.25292633E-04 1.06577417E-03
 2  2 1.09417468E-02 6.72479395E-04 2.41029378E-03-3.88598382E-03 9.93452220E-01
 2  3 3.21523255E-02-3.54171261E-04-3.53974546E-04 6.68622182E-04-2.57239259E-02
 2  4 9.38075049E-04 1.01546748E-03-2.29201209E-03-1.55751970E-04-4.09228576E-05
 2  5-1.82471823E-04 1.29871723E-04-7.65591496E-04 4.72233057E-03-7.59799372E-04
 2  6 4.12314439E-03
 3  1-1.59005059E-01 3.12239539E-01 1.46033961E-02 7.15921063E-02-1.22113299E-01
 3  2 2.05593453E-01-3.02015116E-03 3.20604866E-03-7.57630286E-03-1.66301535E-01
 3  3 3.24572837E-01-3.17360964E-02-5.96324307E-02 1.08548343E-01 2.06930366E-01
 3  4-2.26226773E-03-3.00209743E-04 1.83669753E-03 7.82959017E-02 1.63879986E-02
 3  5 7.27768844E-02 1.36623420E-02 9.04616660E-02 1.73699292E-02 8.20517579E-02
 3  6 1.38676488E-02
 4  1 1.25205001E-01-2.46953916E-01 3.08483255E-02 7.31946798E-02-9.77876519E-02
 4  2-2.59820804E-01 9.94552119E-03 2.52256381E-02-2.28110978E-02-1.17207805E-01
 4  3 2.32031002E-01 2.43417318E-02 1.11769388E-01-1.80858415E-01 2.43342545E-01
 4  4 4.78501876E-03 2.15298932E-02-4.67101112E-02-1.33013424E-01-6.18753174E-02
 4  5-1.43567535E-01-6.35062207E-02 1.64967421E-01 7.50105503E-02 1.62518258E-01
 4  6 7.12399312E-02
 5  1 4.26164095E-03-9.29070411E-03-2.22668074E-01 2.44487739E-01 4.81300747E-02
 5  2-1.77194208E-02-9.28086359E-02 9.40476766E-02 1.69517957E-02 5.63974761E-03
 5  3-1.24073461E-02-2.11616307E-01 2.25359428E-01 1.41711318E-01-2.05020883E-02
 5  4-7.56957191E-02 8.73481020E-02 5.70086173E-02 1.41981294E-01 9.32695292E-02
 5  5-1.60532660E-01-1.01919902E-01 1.38965860E-01 9.03241615E-02-1.65513394E-01
 5  6-1.05591061E-01
 6  1 4.95264913E-03-1.88742371E-03 1.13811866E-01 2.02670701E-01-3.57718332E-01
 6  2-6.53510725E-02 3.92121932E-02 5.45527303E-02-9.97366476E-02-1.92304747E-02
 6  3 4.38566440E-02-2.79675192E-02-2.30416926E-01 3.28066036E-01 2.71696794E-02
 6  4-5.69231316E-03-7.20111229E-02 9.50893875E-02-1.48118848E-01-1.15847852E-01
 6  5-1.42391665E-01-1.12029406E-01-1.35794441E-01-1.03477214E-01-1.03818371E-01
 6  6-8.17349045E-02
 7  1-1.66153335E-04 8.50786239E-04-2.46711022E-01 1.81991014E-01 5.41110819E-02
 7  2 1.15865922E-02-1.31178593E-01 1.01994432E-01 2.92012297E-02 2.02573501E-03
 7  3-6.85404725E-03 1.60080480E-01-2.44082984E-01-1.32643523E-01-9.52318439E-03
 7  4 8.46275138E-02-1.24806116E-01-6.78241974E-02 2.06498307E-01 1.81454689E-01
 7  5-1.90455636E-01-1.65670210E-01-2.04361804E-01-1.73999645E-01 2.01229749E-01
 7  6 1.74882731E-01
 8  1 6.54191669E-03-1.47169343E-02-2.62501436E-01-2.46251418E-01-2.31059414E-01
 8  2-2.67579373E-02-1.49857590E-01-1.55079107E-01-1.39921214E-01 8.84260234E-04
 8  3-2.25200379E-03-3.56708483E-01-1.78694009E-01-1.54371296E-01-3.28013061E-03
 8  4-2.22654499E-01-1.01216673E-01-9.37445597E-02-2.63075420E-02-2.59020756E-02
 8  5 2.37260079E-02 2.24809852E-02 2.47768015E-02 2.04385754E-02-2.72420675E-02
 8  6-2.75481098E-02
 9  1-1.03788329E-02 2.26779306E-02 3.02227614E-01 2.54491406E-01 2.34491877E-01
 9  2 4.85371215E-02 4.01883748E-01 3.25703937E-01 3.13029021E-01 5.93328744E-03
 9  3-1.34226172E-02-3.65676524E-01-2.02709818E-01-1.87682207E-01-1.60725114E-02
 9  4-4.85630276E-01-2.72877612E-01-2.39585738E-01-2.93635339E-02-6.98258176E-02
 9  5 5.32278152E-03 1.40672815E-02-1.30898260E-02-3.58958631E-02 2.41232875E-02
 9  6 5.73240101E-02
10  1-9.03551525E-02 1.20991919E-01-1.33089433E-01-1.92546179E-02 1.49917699E-01
10  2 1.67730237E+00-4.08706747E-01-1.40383464E-01 5.13723655E-01-5.18801371E-02
10  3 7.61597206E-02-3.34232455E-02 1.29838675E-01-6.80715218E-02 1.10288977E+00
10  4-2.00767775E-02 5.43029273E-01-4.41349112E-01-5.77238890E-02-1.47585623E+00
10  5-3.96762766E-03-7.35612078E-01-2.67861205E-02-1.20600371E+00 2.46995114E-02
10  6-4.86147541E-01
11  1-3.58807372E-02 4.46803288E-02 1.87554817E-01-2.25289682E-01 1.11049217E-02
11  2 7.01748012E-01 5.41729527E-01-6.35427919E-01 9.34754243E-02-1.70085916E-02
11  3 1.79765245E-02 1.41402056E-01-1.49248143E-01-1.43455061E-01 4.35688768E-01
11  4 3.21086051E-01-3.32207826E-01-4.62114785E-01 5.18459675E-02 6.24131061E-01
11  5-8.01845137E-02-1.52810064E+00 6.74767741E-02 6.29611176E-01-7.26681393E-02
11  6-1.26336224E+00
12  1 9.23771157E-02-1.07005433E-01 2.15024286E-02 5.21955875E-02-4.47006720E-02
12  2-1.54768326E+00 1.53683104E-02 1.04067482E-01 4.64363932E-02-1.18764887E-01
12  3 1.36142327E-01 2.11270505E-02 4.61430182E-02-1.24376860E-01 2.32639608E+00
12  4 5.40845396E-02 9.28080366E-02-3.70950501E-01 3.13485910E-02 7.47400476E-01
12  5 2.69146544E-02 8.82544743E-01-1.56721708E-02-1.23945275E+00-1.50423221E-02
12  6-1.42483670E+00
13  1-4.81217750E-03-8.02505777E-03-2.07944910E-01 1.74822345E-01 6.70123582E-02
13  2 2.66438618E-01-1.17703745E+00 1.30651490E+00 3.15635045E-01 5.97342091E-03
13  3 6.41504399E-03 1.71394119E-01-2.39755040E-01-9.48675900E-02-3.81344479E-01
13  4 1.19212923E+00-1.29166725E+00-6.77481116E-01 2.96886217E-02-1.53373562E+00
13  5-4.53343555E-02 1.45182066E+00-2.92837294E-02 1.85940635E+00 2.70665351E-02
13  6-1.63073763E+00
14  1-7.02203029E-02 1.62019306E-02 3.52268123E-02 8.57718795E-02-1.17865597E-01
14  2 3.87094538E+00 6.01029818E-01 1.74902983E+00-2.80742570E+00 6.63166653E-02
14  3-1.24564209E-02 2.69134352E-02 8.36605899E-02-1.52213481E-01-3.59901317E+00
14  4 5.77937904E-01 1.69465403E+00-2.94643391E+00 1.08128001E-01 4.80776848E-01
14  5 6.85264481E-02 7.38671529E-01-6.25519501E-02-7.24333819E-01-2.67893033E-02
14  6-9.08534694E-01
15  1 1.91500911E-02 3.14560843E-01 1.58559311E-01 2.24380282E-01-5.07575571E-01
15  2 3.77720828E-01-2.05271371E-01-4.24609592E-01 7.81897298E-01 2.12922218E-02
15  3 3.39306367E-01-5.05430707E-02-3.24693702E-01 4.20525630E-01 6.98723286E-02
15  4 1.67016263E-01 7.47881212E-01-1.08216505E+00-9.28689670E-02 2.75259712E-02
15  5 6.97983915E-03-1.45107657E-01-9.19825640E-02-1.92819149E-01 1.23625433E-02
15  6-2.87811604E-01
16  1-2.31492743E-03 2.82124165E-02 4.82603740E-01 4.14133527E-01 3.53933760E-01
16  2 3.52555299E-03-4.68381719E-01-3.95521585E-01-2.75172824E-01-1.87766003E-03
16  3 1.72585005E-02 5.61059907E-01 3.15539296E-01 3.12121168E-01 4.09534311E-02
16  4-4.87157756E-01-3.13778367E-01-2.96050430E-01-3.48621618E-04-7.98065450E-02
16  5-1.34367646E-02 5.46047016E-03 2.82952294E-03 4.66559424E-02-1.04396925E-02
16  6-6.73863796E-02
17  1-4.18043109E-04-3.61105224E-02-2.31363215E-01 3.51991632E-01 2.37839807E-02
17  2 3.34285218E-01 4.67564776E-01-5.70630830E-01 1.84542308E-02 6.91851004E-03
17  3-1.56420003E-02-3.58974240E-01 2.76941718E-01 1.85315756E-01 7.90348613E-02
17  4 7.45932601E-01-6.28862427E-01-6.51676566E-01 2.85868152E-01 1.33685854E-01
17  5-3.98254200E-01-2.01617351E-01 3.63381022E-01 2.16313766E-01-4.15869161E-01
17  6-3.76347608E-01
18  1 1.50761349E-03-3.99495675E-03-5.43692614E-01-3.86127146E-01-3.75109630E-01
18  2 3.09918400E-02 8.87780388E-01 6.09184316E-01 5.15220806E-01 1.19563782E-04
18  3 9.86810312E-03 5.88351870E-01 3.79283133E-01 3.34171583E-01-2.20065484E-02
18  4-8.69052787E-01-5.79345638E-01-5.95799520E-01 4.69701957E-02 1.85732659E-02
18  5-2.22170071E-02 2.65362072E-02 3.05013413E-02-2.95785651E-02-3.56242760E-02
18  6-3.21366562E-02
19  1-2.72501513E-02-9.23908591E-01 2.51775050E-02-1.83890201E-02-3.58487188E-02
19  2 1.98616452E+00-1.26190922E-01-9.47428105E-02 1.93963806E-01-2.70668744E-02
19  3-9.58653379E-01 2.77593109E-02-5.85100961E-02 4.50259903E-02 1.71612384E+00
19  4 2.14812489E-02 6.52498627E-01-8.08903521E-01-4.66206068E-01-2.54968322E-01
19  5-4.03981293E-01-2.24287612E-01-4.62912733E-01-6.78435398E-01-3.92893610E-01
19  6-5.07433098E-01
20  1 9.12661631E-02 1.34842607E-01-2.12362189E-01-2.28738544E-01 5.84318360E-01
20  2-1.24555123E+00 3.37168005E-01-3.84201097E-02-2.88408713E-01-9.14322526E-02
20  3-1.35512790E-01-8.38464677E-02-3.95955019E-01 5.52180188E-01 1.58099886E+00
20  4-8.36526996E-02 3.86516716E-01-4.12832579E-01 4.04653621E-01 2.83135241E-01
20  5 5.07032048E-01-1.18756503E-01-3.58265860E-01-4.21465935E-01-4.66009676E-01
20  6-1.61240665E-01
21  1-7.78200316E-03 2.92876606E-02-7.93500444E-01 7.80695231E-01 2.13732279E-01
21  2-1.65621138E-01 2.13132401E+00-2.30291442E+00-5.17737809E-01 6.61763441E-03
21  3 9.93048865E-02 2.67174902E-01-2.71492981E-01-1.95437943E-01 2.40752787E-02
21  4-1.37144834E+00 1.39256609E+00 8.69630984E-01-4.62188417E-01 1.88744891E+00
21  5 2.77837254E-01-1.87646788E+00-8.78096543E-02-7.75530283E-01 1.47452486E-01
21  6 9.22021769E-01
22  1 6.30406983E-03-3.04636879E-01 1.14867430E-01 3.13299129E-02-1.44929001E-01
22  2 4.31986334E-01 4.32865548E-01-7.51512559E-01 3.76918393E-02-6.45488654E-04
22  3 2.39382249E-02 6.06152158E-01-7.06653105E-01-4.06154878E-01 1.56205394E-02
22  4-1.44448368E+00 1.57359539E+00 9.85482306E-01 5.35444137E-01-4.44694387E-01
22  5-2.77462964E-01-2.12921563E-01 5.62226864E-01-1.68338742E+00-5.46228378E-01
22  6 1.87081603E+00
23  1 3.82490919E-02-1.25643029E+00 1.04375800E-01 3.97672684E-01-5.15318751E-01
23  2 2.24741070E+00-1.78179915E-01-4.73861900E-01 6.57917246E-01 6.14809798E-03
23  3-2.15928429E-01-9.22937818E-02 2.42417356E-01-8.63085643E-02 4.55112736E-02
23  4 1.67723195E-01-3.87685776E-01 1.23685525E-01 5.65775646E-01-1.15363232E+00
23  5 7.67325326E-01-1.47215841E+00-1.09026088E-01 4.66831794E-01 2.01778547E-01
23  6-2.42333385E-01
24  1 3.49532945E-03 1.03754841E-01-4.95005787E-02-3.47406606E-02 1.04905796E-01
24  2-8.96139075E-01 1.24155257E-01-1.83190756E-01 7.19083675E-02 4.27396904E-02
24  3-1.46694301E+00-4.10358033E-02-3.60764072E-01 5.16597273E-01 3.10329189E+00
24  4-1.02442655E-01 3.85078136E-01-3.38216337E-01 5.70301081E-02 2.19049484E-01
24  5 2.45093941E-02 6.32623540E-02 7.22506484E-01-1.44934652E+00 7.16242861E-01
24  6-1.22472318E+00
25  1-5.23926537E-03-1.45409159E+00-9.62638964E-02-3.01381419E-01 4.86670172E-01
25  2 4.80689303E+00 6.77236162E-01 5.42518688E-01-1.74340102E+00 1.02885127E-02
25  3 1.28031752E+00-1.26074796E-01-2.95527556E-01 5.57880834E-01-4.62081844E+00
25  4 1.77905705E-02 1.32687743E+00-1.42478939E+00-2.79900879E-03-5.02406828E-02
25  5-4.52660463E-01-1.84066860E-01 1.00767429E-01-4.58396207E-02 5.40596463E-01
25  6 7.53102294E-02
26  1 1.63777893E-02 5.44724624E-01-2.11158995E-02 9.86141798E-02-7.92843267E-02
26  2-2.47297071E+00 1.51960115E+00-2.41216025E+00 4.43544051E-01-1.96990757E-02
26  3-4.02092421E-01-9.58871445E-03 1.01357231E-01-1.13243359E-01 2.41829098E+00
26  4-1.71582544E+00 1.10097787E+00 1.75705673E+00 8.43838434E-01 5.69318370E-01
26  5-6.72563072E-01-6.86935615E-01-8.41462232E-01-5.52102680E-01 5.42315680E-01
26  6 7.19920968E-01
 $END
