 $contrl runtyp=optimize coord=fragonly $end
 $system mwords=1 $end
 $statpt opttol=1.0e-6 nstep=100 $end

 $efrag
iscrelec=1 iscrpol=1 iscrdisp=1 >
coord=cart polmethd=frgscf
 FRAGNAME=MeOH
A01O         1.18736267     0.13488382    -0.59738898
A02H         1.45477128     0.21659493    -1.49717724
A03C         2.19796705    -0.46808979     0.16327024
 FRAGNAME=MeOH
A01O        -2.22136784    -0.68695098     0.05935264
A02H        -1.32613206    -0.46493262    -0.13316785
A03C        -2.94101429     0.45467955     0.43680125
 $end

          RUNTYP=MAKEFP EFFECTIVE FRAGMENT POTENTIAL DATA FOLLOWS...
          MEOH    EFP GENERATED AT 16:15:07 27-DEC-2023    
 $MEOH    
EFP DATA FOR MEOH     SCFTYP=RHF     ... GENERATED WITH BASIS SET=XXX
 COORDINATES (BOHR)
A01O       1.7330502566   0.3763733091  -1.3028163013  15.9949100  8.0
A02H       2.6813053668   0.2544343815  -2.8049298414   1.0078250  1.0
A03C       2.9312489392  -0.9338152460   0.6617475585  12.0000000  6.0
A04H       1.7614696090  -0.7262609641   2.3239034570   1.0078250  1.0
A05H       3.1179736426  -2.9356974583   0.2397581500   1.0078250  1.0
A06H       4.7903615702  -0.1609670896   1.0702564578   1.0078250  1.0
BO21       2.2071778117   0.3154038453  -2.0538730714   0.0000000  0.0
BO31       2.3321495979  -0.2787209685  -0.3205343714   0.0000000  0.0
BO43       2.3463592741  -0.8300381051   1.4928255078   0.0000000  0.0
BO53       3.0246112909  -1.9347563522   0.4507528543   0.0000000  0.0
BO63       3.8608052547  -0.5473911678   0.8660020081   0.0000000  0.0
 STOP
 MONOPOLES 
A01O      -8.4303906496   8.00000
A02H      -0.6682689657   1.00000
A03C      -4.7486435676   6.00000
A04H      -0.6412732164   1.00000
A05H      -0.6604695486   1.00000
A06H      -0.6604695504   1.00000
BO21      -0.3086325150   0.00000
BO31      -0.0462054497   0.00000
BO43      -0.6307614499   0.00000
BO53      -0.6024425448   0.00000
BO63      -0.6024425423   0.00000
 STOP
 DIPOLES 
A01O        0.5192753969   -0.2225818363   -0.3020178497
A02H        0.0415951981    0.0061014965   -0.1041462842
A03C       -0.2113063761    0.2072655706   -0.2669720062
A04H       -0.0307919434    0.0056004284    0.0432949654
A05H        0.0041725243   -0.0534684950   -0.0085989933
A06H        0.0485843997    0.0202171473    0.0134556902
BO21       -0.2620995445    0.0875534363    0.2352743423
BO31       -0.0728335425    0.0678482453   -0.0800178738
BO43        0.2279882394   -0.0460865344   -0.3051265307
BO53       -0.0346851239    0.3633823145    0.1084531167
BO63       -0.3457724557   -0.1527559884   -0.0460310767
 STOP
 QUADRUPOLES 
A01O       -4.5869805086   -4.9226759256   -4.0316422075   -0.2602801026 >
           -0.2358341300   -0.1883816097
A02H       -0.3932692686   -0.4053736260   -0.4029622559   -0.0067863552 >
           -0.0080243406    0.0031748649
A03C       -2.8488027482   -2.8250988079   -2.6399630464   -0.1214395932 >
            0.1821901457   -0.2055436235
A04H       -0.4152199936   -0.4144857498   -0.4159510372   -0.0003814294 >
            0.0018118271   -0.0007933346
A05H       -0.4353210573   -0.4392177359   -0.4347415874    0.0006707369 >
            0.0003637627   -0.0001417784
A06H       -0.4386730083   -0.4351514655   -0.4354559336   -0.0008845226 >
           -0.0011877512   -0.0007265597
BO21        0.0274127520   -0.0598270226    0.0727545164   -0.0323712701 >
           -0.0978891989    0.0148036208
BO31        0.7418705736    0.7680730867    0.7536090723   -0.0322568751 >
            0.0860597366   -0.0586105513
BO43       -0.4469424914   -0.4380391278   -0.5076832389   -0.0154237794 >
            0.0448159389   -0.0098294904
BO53       -0.3889622726   -0.5345170360   -0.3721909682    0.0297586050 >
            0.0229132711    0.0067819780
BO63       -0.5157105095   -0.3703905066   -0.4095692218   -0.0259268770 >
           -0.0461925682   -0.0310970460
 STOP
 OCTUPOLES  
A01O          1.129909346     -0.412392727     -0.815953705     -0.157291626 >
             -0.323648277      0.361661322     -0.259597549      0.426713985 >
             -0.167714536      0.017530711
A02H          0.041481103      0.025824503     -0.174325088      0.010665843 >
             -0.054101365      0.015517250     -0.060330546      0.009044800 >
              0.010131279     -0.002108764
A03C         -0.913060709      0.968072904     -0.861398943      0.084117543 >
             -0.369304382     -0.283981597     -0.170326321     -0.076548880 >
              0.134768722     -0.068056126
A04H         -0.040763020      0.006223212      0.061311447      0.001894517 >
              0.020579988     -0.013608556      0.020517160     -0.013823812 >
              0.002333368      0.000070268
A05H          0.005988224     -0.075954084     -0.010055818     -0.025174100 >
             -0.003403931      0.002155033     -0.003255650      0.002055579 >
             -0.024992464      0.000069290
A06H          0.068543499      0.027497110      0.020689689      0.009203089 >
              0.007111664      0.022575984      0.006976907      0.022772974 >
              0.009221677      0.000121558
BO21         -0.672146399      0.216378109      0.647654927      0.070526969 >
              0.232782680     -0.216635396      0.199214773     -0.266372593 >
              0.086182269     -0.006051990
BO31         -0.156259509      0.145386452     -0.324873240      0.121608834 >
             -0.065766790     -0.037530757     -0.143765568     -0.096116878 >
              0.067689334     -0.017749067
BO43          0.746700566     -0.164586807     -0.952624769     -0.054845513 >
             -0.331693413      0.243129348     -0.310738831      0.269718184 >
             -0.062310679      0.006526141
BO53         -0.111877760      1.148722747      0.365437507      0.370964449 >
              0.123000712     -0.029117892      0.163849845     -0.061046079 >
              0.363279770     -0.006970437
BO63         -1.109184883     -0.473141522     -0.077815468     -0.189064012 >
             -0.018972832     -0.369014900     -0.057022972     -0.347097306 >
             -0.148039935     -0.007698930
 STOP
 POLARIZABLE POINTS
CT1   2.2868745814   0.2798588733  -2.0956055738
    1.3284270691    0.8106015391    3.1450676978   -0.1633736249 >
   -0.7347839763   -0.2912158555   -0.0513053315   -1.1091838714 >
   -0.0655944213
CT2   3.0691861132  -2.3156920240   0.3645375761
    2.4458438524    5.6136268502    2.7103020821   -0.2462112927 >
   -0.0179311834    0.7232017926   -0.2604151599    0.0524415230 >
    0.5602492845
CT3   2.2411815162  -0.1409721615  -0.5975790892
    1.7080016296    1.8697145312    3.2782253058   -0.8990249856 >
    1.2727511246   -1.4945769076   -0.9521125194    1.4492990824 >
   -1.6008712606
CT4   4.2205636957  -0.4053927302   0.9363044933
    5.1132151152    2.9926737185    2.6638491532    1.1981531749 >
    0.5490673943    0.1623010317    1.1409631085    0.7165358521 >
    0.1816982467
CT5   2.1382942308  -0.7963393361   1.7992210608
    3.5518365682    2.4522287805    4.6996516527   -0.2606298843 >
   -1.5199158138    0.2171496828   -0.2531073941   -1.5450620836 >
    0.2322627075
CT6   1.2387273399   0.0936300863  -1.3986332732
    2.8104300220    1.3439581613    1.8503791717    0.3896442665 >
    0.7168596701   -0.1889415705    0.3560788198    0.7350229651 >
   -0.1231814278
CT7   1.7443186457   0.9324749240  -1.1475603749
    1.1878218301    3.1204712209    1.6965587130   -0.4569812725 >
    0.1851791306   -0.1189014870   -0.4188054462    0.1512555091 >
   -0.1754154668
 STOP
 DYNAMIC POLARIZABLE POINTS
CT  1   2.2868745814   0.2798588733  -2.0956055738 -- FOR W= 0.002792I A.U.
    1.3284486645    0.8106089305    3.1447355033   -0.1633524490 >
   -0.7347046926   -0.2911272502   -0.0512634088   -1.1092007486 >
   -0.0654106023
CT  2   3.0691861132  -2.3156920240   0.3645375761
    2.4458989112    5.6134464103    2.7103378241   -0.2461779814 >
   -0.0181981271    0.7231196233   -0.2603062002    0.0525648969 >
    0.5601859949
CT  3   2.2411815162  -0.1409721615  -0.5975790892
    1.7077980941    1.8693471810    3.2779364091   -0.8988138525 >
    1.2725564340   -1.4941520398   -0.9517716683    1.4494911460 >
   -1.6007943693
CT  4   4.2205636957  -0.4053927302   0.9363044933
    5.1130070216    2.9926451943    2.6640209045    1.1981285972 >
    0.5489544954    0.1624549623    1.1408958807    0.7166112526 >
    0.1816880236
CT  5   2.1382942308  -0.7963393361   1.7992210608
    3.5517489880    2.4522711100    4.6995257230   -0.2605554658 >
   -1.5196835418    0.2171397448   -0.2529802085   -1.5449927983 >
    0.2323941234
CT  6   1.2387273399   0.0936300863  -1.3986332732
    2.8105794199    1.3440382276    1.8504974737    0.3897068753 >
    0.7167563624   -0.1891957403    0.3563228316    0.7351112721 >
   -0.1231336605
CT  7   1.7443186457   0.9324749240  -1.1475603749
    1.1877432639    3.1205743497    1.6967878044   -0.4569101760 >
    0.1853037497   -0.1187918908   -0.4187994980    0.1511585006 >
   -0.1753367492
CT  1   2.2868745814   0.2798588733  -2.0956055738 -- FOR W= 0.015107I A.U.
    1.3280796101    0.8105614107    3.1429657040   -0.1633136505 >
   -0.7341036329   -0.2909616646   -0.0512770810   -1.1084243771 >
   -0.0653506794
CT  2   3.0691861132  -2.3156920240   0.3645375761
    2.4447287696    5.6087596398    2.7090323470   -0.2460019620 >
   -0.0180615333    0.7224189793   -0.2599680136    0.0525811983 >
    0.5594857732
CT  3   2.2411815162  -0.1409721615  -0.5975790892
    1.7068661641    1.8682644441    3.2760281264   -0.8980984912 >
    1.2714290830   -1.4929926490   -0.9510568425    1.4483655833 >
   -1.5996360573
CT  4   4.2205636957  -0.4053927302   0.9363044933
    5.1088867484    2.9909489027    2.6626750870    1.1968858145 >
    0.5483140536    0.1620647409    1.1395605989    0.7158583413 >
    0.1814376695
CT  5   2.1382942308  -0.7963393361   1.7992210608
    3.5494559530    2.4511258769    4.6962896027   -0.2603649819 >
   -1.5179565732    0.2167324170   -0.2527350618   -1.5434484610 >
    0.2320968715
CT  6   1.2387273399   0.0936300863  -1.3986332732
    2.8086827778    1.3436420395    1.8495299476    0.3895613391 >
    0.7158872811   -0.1890420334    0.3558506002    0.7342971220 >
   -0.1230140829
CT  7   1.7443186457   0.9324749240  -1.1475603749
    1.1874583701    3.1183221904    1.6960645086   -0.4565689723 >
    0.1850164203   -0.1184701950   -0.4182029991    0.1510547839 >
   -0.1751246990
CT  1   2.2868745814   0.2798588733  -2.0956055738 -- FOR W= 0.039002I A.U.
    1.3259221469    0.8102797857    3.1326356684   -0.1630835209 >
   -0.7306056542   -0.2899896671   -0.0513565036   -1.1038921427 >
   -0.0650020414
CT  2   3.0691861132  -2.3156920240   0.3645375761
    2.4378954329    5.5814747495    2.7014064128   -0.2449727397 >
   -0.0172711319    0.7183296631   -0.2580069879    0.0526737283 >
    0.5554177458
CT  3   2.2411815162  -0.1409721615  -0.5975790892
    1.7014336131    1.8619534342    3.2648901723   -0.8939296912 >
    1.2648653443   -1.4862342607   -0.9468878685    1.4418012601 >
   -1.5928773219
CT  4   4.2205636957  -0.4053927302   0.9363044933
    5.0848948033    2.9810509009    2.6548209147    1.1896483827 >
    0.5445974982    0.1598069036    1.1317991085    0.7114773769 >
    0.1799796117
CT  5   2.1382942308  -0.7963393361   1.7992210608
    3.5360851241    2.4444356715    4.6774180110   -0.2592533962 >
   -1.5079116740    0.2143695885   -0.2513096981   -1.5344519087 >
    0.2303659043
CT  6   1.2387273399   0.0936300863  -1.3986332732
    2.7976457283    1.3413235960    1.8438857065    0.3887088028 >
    0.7108344071   -0.1881442239    0.3531201242    0.7295625068 >
   -0.1223169792
CT  7   1.7443186457   0.9324749240  -1.1475603749
    1.1857857878    3.1052191578    1.6918404334   -0.4545747648 >
    0.1833476459   -0.1165992785   -0.4147434317    0.1504461610 >
   -0.1738838704
CT  1   2.2868745814   0.2798588733  -2.0956055738 -- FOR W= 0.077996I A.U.
    1.3184067102    0.8092475851    3.0968683649   -0.1622391527 >
   -0.7186277051   -0.2865534238   -0.0516263126   -1.0881915840 >
   -0.0638094668
CT  2   3.0691861132  -2.3156920240   0.3645375761
    2.4141903466    5.4879188912    2.6749224642   -0.2413871291 >
   -0.0146222499    0.7041782860   -0.2513829436    0.0529602285 >
    0.5415787241
CT  3   2.2411815162  -0.1409721615  -0.5975790892
    1.6827132172    1.8402143615    3.2263307660   -0.8795822102 >
    1.2423520921   -1.4629484183   -0.9324971815    1.4191436426 >
   -1.5695044845
CT  4   4.2205636957  -0.4053927302   0.9363044933
    5.0025659583    2.9468179235    2.6276379871    1.1648045259 >
    0.5320057179    0.1522426634    1.1053424723    0.6964848481 >
    0.1749738334
CT  5   2.1382942308  -0.7963393361   1.7992210608
    3.4899605684    2.4211967834    4.6122991733   -0.2554076356 >
   -1.4735878221    0.2063784975   -0.2464454531   -1.5035308610 >
    0.2244257570
CT  6   1.2387273399   0.0936300863  -1.3986332732
    2.7598572107    1.3332166136    1.8243811547    0.3857166258 >
    0.6935957872   -0.1850276233    0.3439944043    0.7133937299 >
   -0.1199146901
CT  7   1.7443186457   0.9324749240  -1.1475603749
    1.1798688872    3.0603935802    1.6771830116   -0.4476390916 >
    0.1776764573   -0.1102109648   -0.4030488593    0.1482977517 >
   -0.1695493052
CT  1   2.2868745814   0.2798588733  -2.0956055738 -- FOR W= 0.138651I A.U.
    1.2975463023    0.8059653458    2.9994084044   -0.1595825026 >
   -0.6869889106   -0.2766741616   -0.0523160143   -1.0453722454 >
   -0.0606688934
CT  2   3.0691861132  -2.3156920240   0.3645375761
    2.3492417814    5.2397703916    2.6021438188   -0.2314883810 >
   -0.0080373574    0.6657764471   -0.2345428454    0.0534881585 >
    0.5056988258
CT  3   2.2411815162  -0.1409721615  -0.5975790892
    1.6323540649    1.7818002496    3.1213088245   -0.8411506946 >
    1.1826138402   -1.4003761378   -0.8936331285    1.3579602296 >
   -1.5060612136
CT  4   4.2205636957  -0.4053927302   0.9363044933
    4.7837388090    2.8538181863    2.5535895462    1.0987579289 >
    0.4996928776    0.1334548171    1.0363325010    0.6569384802 >
    0.1616744547
CT  5   2.1382942308  -0.7963393361   1.7992210608
    3.3655521386    2.3572965960    4.4365590273   -0.2449513327 >
   -1.3834893523    0.1860224887   -0.2337111234   -1.4210433857 >
    0.2086570596
CT  6   1.2387273399   0.0936300863  -1.3986332732
    2.6599662838    1.3104832972    1.7714945763    0.3772505212 >
    0.6485422326   -0.1764854597    0.3214453733    0.6709864632 >
   -0.1134615757
CT  7   1.7443186457   0.9324749240  -1.1475603749
    1.1628053439    2.9421617579    1.6369679674   -0.4285838506 >
    0.1630037572   -0.0935131060   -0.3732566756    0.1421575457 >
   -0.1575000613
CT  1   2.2868745814   0.2798588733  -2.0956055738 -- FOR W= 0.233223I A.U.
    1.2465035159    0.7954059511    2.7726062282   -0.1516114887 >
   -0.6183412099   -0.2512818434   -0.0535909100   -0.9458331123 >
   -0.0538954032
CT  2   3.0691861132  -2.3156920240   0.3645375761
    2.1959994616    4.6953413154    2.4293848687   -0.2081971694 >
    0.0043199738    0.5783541055   -0.2010441054    0.0534462910 >
    0.4312166781
CT  3   2.2411815162  -0.1409721615  -0.5975790892
    1.5181600730    1.6497167890    2.8772387588   -0.7551986411 >
    1.0517710278   -1.2594058187   -0.8051565775    1.2186828804 >
   -1.3600072770
CT  4   4.2205636957  -0.4053927302   0.9363044933
    4.3015524062    2.6386153040    2.3805493383    0.9537989223 >
    0.4336976634    0.0981256521    0.8907471530    0.5713314593 >
    0.1326987274
CT  5   2.1382942308  -0.7963393361   1.7992210608
    3.0823037894    2.2053868505    4.0364458434   -0.2207457317 >
   -1.1912100348    0.1457098938   -0.2065469835   -1.2386486863 >
    0.1743021421
CT  6   1.2387273399   0.0936300863  -1.3986332732
    2.4416020508    1.2537867789    1.6493717599    0.3558787870 >
    0.5533086933   -0.1564867115    0.2791332543    0.5802977566 >
   -0.0989829655
CT  7   1.7443186457   0.9324749240  -1.1475603749
    1.1182712165    2.6849564145    1.5415248126   -0.3842049344 >
    0.1326062350   -0.0586076236   -0.3137634438    0.1266798308 >
   -0.1288061570
CT  1   2.2868745814   0.2798588733  -2.0956055738 -- FOR W= 0.385897I A.U.
    1.1335143980    0.7606817853    2.3274106182   -0.1302278868 >
   -0.4991239573   -0.1953660976   -0.0541217801   -0.7533980865 >
   -0.0421095086
CT  2   3.0691861132  -2.3156920240   0.3645375761
    1.8854518675    3.7282968497    2.0764967077   -0.1635843458 >
    0.0195365023    0.4200746883   -0.1512040321    0.0491594127 >
    0.3131624845
CT  3   2.2411815162  -0.1409721615  -0.5975790892
    1.3013749219    1.4007675514    2.4000897618   -0.5986940348 >
    0.8219795064   -0.9994121760   -0.6394149259    0.9580298546 >
   -1.0814127749
CT  4   4.2205636957  -0.4053927302   0.9363044933
    3.4389839053    2.2181438180    2.0331106746    0.7010781726 >
    0.3290213221    0.0521730632    0.6514691254    0.4237814403 >
    0.0841168528
CT  5   2.1382942308  -0.7963393361   1.7992210608
    2.5455497303    1.8943000363    3.2820157504   -0.1739351022 >
   -0.8713083892    0.0888447739   -0.1602911255   -0.9168935299 >
    0.1163198870
CT  6   1.2387273399   0.0936300863  -1.3986332732
    2.0499729252    1.1265286329    1.4101064732    0.3082642734 >
    0.3975255125   -0.1177827936    0.2215168284    0.4272932335 >
   -0.0726470608
CT  7   1.7443186457   0.9324749240  -1.1475603749
    1.0134193923    2.2283375202    1.3448447152   -0.3004522967 >
    0.0845796283   -0.0049370563   -0.2254589015    0.0940827448 >
   -0.0737420229
CT  1   2.2868745814   0.2798588733  -2.0956055738 -- FOR W= 0.649114I A.U.
    0.9146301639    0.6602986553    1.6419771775   -0.0879910803 >
   -0.3404318830   -0.1068099590   -0.0476915586   -0.4750742810 >
   -0.0256580225
CT  2   3.0691861132  -2.3156920240   0.3645375761
    1.3759502375    2.4193186582    1.4970067213   -0.1004736482 >
    0.0256972820    0.2224778001   -0.0955623980    0.0347474606 >
    0.1807611869
CT  3   2.2411815162  -0.1409721615  -0.5975790892
    0.9696447209    1.0264741028    1.6729291802   -0.3834201674 >
    0.5196008657   -0.6368467727   -0.4053847821    0.5929855740 >
   -0.6810773941
CT  4   4.2205636957  -0.4053927302   0.9363044933
    2.2585728801    1.5664552648    1.4672427107    0.3863599592 >
    0.2014081944    0.0169837038    0.3679657737    0.2374052050 >
    0.0315493362
CT  5   2.1382942308  -0.7963393361   1.7992210608
    1.7515660535    1.3808560303    2.1880536484   -0.1055840705 >
   -0.4907574673    0.0397701742   -0.0996797200   -0.5104841675 >
    0.0516598739
CT  6   1.2387273399   0.0936300863  -1.3986332732
    1.4858101858    0.8872803409    1.0328104067    0.2251018384 >
    0.2173185917   -0.0627770436    0.1626378616    0.2401709952 >
   -0.0370301098
CT  7   1.7443186457   0.9324749240  -1.1475603749
    0.8076482016    1.5860837982    1.0121648869   -0.1839867770 >
    0.0330844436    0.0438622983   -0.1322479276    0.0460650177 >
   -0.0034818521
CT  1   2.2868745814   0.2798588733  -2.0956055738 -- FOR W= 1.153904I A.U.
    0.5807462456    0.4535278258    0.8822443172   -0.0389714250 >
   -0.1786751275   -0.0284590897   -0.0292857124   -0.2110354560 >
   -0.0089548465
CT  2   3.0691861132  -2.3156920240   0.3645375761
    0.7610751370    1.1614595381    0.8109778385   -0.0403320032 >
    0.0156848656    0.0771147441   -0.0437660600    0.0143145083 >
    0.0789167210
CT  3   2.2411815162  -0.1409721615  -0.5975790892
    0.5750426323    0.5956904647    0.8833453688   -0.1770114625 >
    0.2386258596   -0.2885372022   -0.1816318751    0.2540628230 >
   -0.2978413937
CT  4   4.2205636957  -0.4053927302   0.9363044933
    1.1030879495    0.8345199013    0.7959022775    0.1411378453 >
    0.0850396468    0.0042136148    0.1451605230    0.0844433664 >
    0.0035969663
CT  5   2.1382942308  -0.7963393361   1.7992210608
    0.9066411943    0.7627306338    1.0750776640   -0.0420153115 >
   -0.1922224386    0.0160069304   -0.0432140435   -0.1882174209 >
    0.0135930261
CT  6   1.2387273399   0.0936300863  -1.3986332732
    0.8459689647    0.5496054836    0.5884478223    0.1253149840 >
    0.0833700358   -0.0154489282    0.1037089086    0.0927894444 >
   -0.0069709125
CT  7   1.7443186457   0.9324749240  -1.1475603749
    0.5045821775    0.8885230646    0.5909151393   -0.0751369295 >
    0.0030921368    0.0523433771   -0.0579710197    0.0085075202 >
    0.0349241379
CT  1   2.2868745814   0.2798588733  -2.0956055738 -- FOR W= 2.307592I A.U.
    0.2405890603    0.2003148018    0.3151599978   -0.0104556746 >
   -0.0593313864   -0.0005700306   -0.0105620367   -0.0589760474 >
   -0.0007842429
CT  2   3.0691861132  -2.3156920240   0.3645375761
    0.2745652448    0.3657163855    0.2867820126   -0.0080640540 >
    0.0043885428    0.0175235364   -0.0108542717    0.0027714671 >
    0.0236091068
CT  3   2.2411815162  -0.1409721615  -0.5975790892
    0.2326424747    0.2363739252    0.3116505506   -0.0505825203 >
    0.0678155894   -0.0795609193   -0.0500480015    0.0660297149 >
   -0.0784845146
CT  4   4.2205636957  -0.4053927302   0.9363044933
    0.3535010038    0.2924854536    0.2810764260    0.0316432194 >
    0.0196890861    0.0012729088    0.0362668726    0.0151805328 >
   -0.0011205986
CT  5   2.1382942308  -0.7963393361   1.7992210608
    0.3100609431    0.2753071184    0.3446634927   -0.0100400716 >
   -0.0469027248    0.0059553209   -0.0115776009   -0.0417657706 >
    0.0028591714
CT  6   1.2387273399   0.0936300863  -1.3986332732
    0.3228648348    0.2265322950    0.2266137588    0.0467596908 >
    0.0222284445    0.0013919544    0.0443555344    0.0239369785 >
    0.0025176561
CT  7   1.7443186457   0.9324749240  -1.1475603749
    0.2078934527    0.3377211080    0.2303957449   -0.0171522548 >
   -0.0020060766    0.0262016790   -0.0154689754   -0.0013060449 >
    0.0236242872
CT  1   2.2868745814   0.2798588733  -2.0956055738 -- FOR W= 5.957643I A.U.
    0.0486958504    0.0423618751    0.0578460509   -0.0016019387 >
   -0.0092555191    0.0006686222   -0.0018585457   -0.0083981959 >
    0.0001518830
CT  2   3.0691861132  -2.3156920240   0.3645375761
    0.0497824713    0.0606110678    0.0514782440   -0.0006400887 >
    0.0006026580    0.0023840954   -0.0012200298    0.0002710824 >
    0.0037281578
CT  3   2.2411815162  -0.1409721615  -0.5975790892
    0.0473798734    0.0476041108    0.0574176661   -0.0072970802 >
    0.0096236331   -0.0109980514   -0.0070684077    0.0088596199 >
   -0.0105375579
CT  4   4.2205636957  -0.4053927302   0.9363044933
    0.0592639909    0.0522719939    0.0503356766    0.0039331062 >
    0.0021412436    0.0001699517    0.0049119211    0.0011401541 >
   -0.0003708802
CT  5   2.1382942308  -0.7963393361   1.7992210608
    0.0546167543    0.0500146958    0.0578789920   -0.0013565451 >
   -0.0061065252    0.0011228396   -0.0016876179   -0.0050003960 >
    0.0004561523
CT  6   1.2387273399   0.0936300863  -1.3986332732
    0.0633783630    0.0470301409    0.0454781309    0.0088894774 >
    0.0035527754    0.0009397799    0.0088617380    0.0036500313 >
    0.0009541222
CT  7   1.7443186457   0.9324749240  -1.1475603749
    0.0431532063    0.0663237345    0.0464095990   -0.0020820374 >
   -0.0005006073    0.0054377980   -0.0020942221   -0.0004644450 >
    0.0053430423
CT  1   2.2868745814   0.2798588733  -2.0956055738 -- FOR W=32.239080I A.U.
    0.0018654657    0.0016504406    0.0021471748   -0.0000547493 >
   -0.0003115267    0.0000299563   -0.0000655005   -0.0002756068 >
    0.0000083061
CT  2   3.0691861132  -2.3156920240   0.3645375761
    0.0017987617    0.0021362326    0.0018557760   -0.0000149764 >
    0.0000201489    0.0000799711   -0.0000361570    0.0000082026 >
    0.0001290404
CT  3   2.2411815162  -0.1409721615  -0.5975790892
    0.0018280614    0.0018323254    0.0021480038   -0.0002446480 >
    0.0003210976   -0.0003630586   -0.0002356776    0.0002911267 >
   -0.0003449942
CT  4   4.2205636957  -0.4053927302   0.9363044933
    0.0020953498    0.0018824483    0.0018129679    0.0001261572 >
    0.0000629583    0.0000049558    0.0001618334    0.0000264735 >
   -0.0000149229
CT  5   2.1382942308  -0.7963393361   1.7992210608
    0.0019597390    0.0018087343    0.0020478511   -0.0000452084 >
   -0.0001978818    0.0000410331   -0.0000573239   -0.0001574035 >
    0.0000166360
CT  6   1.2387273399   0.0936300863  -1.3986332732
    0.0024447198    0.0018513030    0.0017761632    0.0003333654 >
    0.0001256530    0.0000402299    0.0003349608    0.0001270903 >
    0.0000393986
CT  7   1.7443186457   0.9324749240  -1.1475603749
    0.0017027920    0.0025546457    0.0018147450   -0.0000682554 >
   -0.0000192852    0.0002097169   -0.0000704525   -0.0000187113 >
    0.0002093360
 STOP
 DIPOLE-QUADRUPOLE DYNAMIC POLARIZABLE POINTS
CT  1   2.2868745814   0.2798588733  -2.0956055738 -- FOR W= 0.002792I A.U.
       0.8652281253       0.0695094526       0.1291002505       0.0584700066 >
       0.6910815576       0.1777663674       0.1659836872       0.1555350977 >
      -0.4975256895      -0.0649666777       0.1731769548      -0.2052854345 >
       0.2663357518      -0.4321409767      -0.1599182092      -0.5165335911 >
       0.0276781101      -0.0738555107      -0.6193720220      -0.1013774212 >
       0.1874710463      -0.3903960017      -0.3935493478      -0.6591396321 >
       1.1530962427      -1.2411422432       0.7884416138
CT  2   3.0691861132  -2.3156920240   0.3645375761
       0.2055470750       0.2847506709       0.1625339797       0.2695631308 >
       0.2120508362       0.5261381222       0.2386027525       0.3251537679 >
      -0.2956635783      -0.5383234446       0.2355825773       0.4602244938 >
       0.2788461799       0.1287847509       0.2065710983       0.2693672116 >
       0.7055084281       0.2435849146      -0.8285163395       0.0405846930 >
      -0.0999186536      -0.0009564490       0.6318193468       0.8331592775 >
      -0.0212479233       0.6520179583      -0.3783091099
CT  3   2.2411815162  -0.1409721615  -0.5975790892
       0.2369254242      -0.1301211918       0.4877856104      -0.1212757653 >
      -0.1950162491      -0.0617282558       0.4582325978      -0.0439163150 >
      -0.1111344719       0.3166177413       0.2974292279      -0.1390312491 >
       0.2868446719      -0.4783791730       0.4486864592      -0.1036674271 >
       0.4273721038       0.1882600320      -0.1104729062      -0.2053494314 >
       0.5912525960      -0.1877981322      -0.1836229889      -0.4470699941 >
       0.5326118552      -0.4117259673       0.3449632631
CT  4   4.2205636957  -0.4053927302   0.9363044933
       0.0328138133      -0.5008240601      -0.2017322917      -0.6611927351 >
       0.1674549946       0.3222289698       0.2680495683       0.4019543784 >
       0.1411756172      -0.2165414288      -0.8096852191       0.1298630790 >
      -0.7984239284      -0.4168838619       0.0535679252       0.0710409083 >
       0.0497835671       0.8316715473       0.4883360174       0.4540874278 >
      -0.2148367797       0.3672068400      -0.5403935041       0.0980674811 >
       0.1153463548       0.1359450627      -0.4139400151
CT  5   2.1382942308  -0.7963393361   1.7992210608
       0.7243737898      -0.3937018341      -0.7927922282      -0.3961362090 >
      -0.6734592028       0.2798652104      -0.7846588781       0.2749630615 >
      -0.1394511027      -0.0363887162       0.3811721032       0.4390957681 >
       0.3752392899      -0.1525081594      -0.3307066380       0.4589175709 >
      -0.3426536093       0.2411181004       0.1841513520       0.3529590086 >
       0.4065287172       0.3776829174       0.4443696276       0.1616751745 >
       0.3239250149       0.2114620243      -0.6247073584
CT  6   1.2387273399   0.0936300863  -1.3986332732
       1.7789542658       0.0348990705       1.4466033307       0.0906740943 >
      -1.5436765612      -0.4997489479       1.4159376170      -0.5407992175 >
      -0.2818362613       0.7857926640       0.7180095204      -0.3135831547 >
       0.6995891714      -0.3605650984      -0.0390666382      -0.3727756916 >
      -0.0026154947      -0.5822762298       0.5037241638      -0.6937451293 >
       1.7133036627      -0.5732469071      -0.8312276375      -0.3179538917 >
       1.6851654550      -0.4192275321       0.3217180440
CT  7   1.7443186457   0.9324749240  -1.1475603749
      -0.0135628937      -0.3510631400       0.2060268072      -0.3858323533 >
       0.1829129390      -0.6151345931       0.2371782722      -0.6328676981 >
      -0.0608827672       1.4644569729       1.5973541013      -0.4752072342 >
       1.6663358885      -2.1137732191       0.7794682743      -0.4676912150 >
       0.6771199142       0.7494738093       0.1428768968      -0.3221019445 >
       0.5778558390      -0.4354932768       0.1249093119      -1.4871589428 >
       0.6173413299      -1.4217705930      -0.1965893135
CT  1   2.2868745814   0.2798588733  -2.0956055738 -- FOR W= 0.015107I A.U.
       0.8647848900       0.0694701306       0.1289469674       0.0584358523 >
       0.6906530522       0.1775795385       0.1658131380       0.1553586790 >
      -0.4971495931      -0.0649106210       0.1731541997      -0.2051087702 >
       0.2662693875      -0.4318516573      -0.1599557687      -0.5162112265 >
       0.0275527329      -0.0739336071      -0.6188942923      -0.1013338072 >
       0.1871042998      -0.3902170902      -0.3933970788      -0.6586472079 >
       1.1522774612      -1.2403773715       0.7879166989
CT  2   3.0691861132  -2.3156920240   0.3645375761
       0.2053130194       0.2838578821       0.1623711302       0.2688446684 >
       0.2116876363       0.5254020782       0.2383105911       0.3246057959 >
      -0.2956966483      -0.5382572520       0.2350583048       0.4599252946 >
       0.2778253171       0.1293043309       0.2060241267       0.2692487555 >