 $CONTRL SCFTYP=RHF RUNTYP=MD COORD=FRAGONLY $END                  
 $SYSTEM TIMLIM=100 MWORDS=1000 MEMDDI=600 $END                                            
 $MD PBCOUT=.TRUE. $END
 $GUESS GUESS=HUCKEL $END                                                       
 $EFRAG
 ISCRPOL=1 ISCRELEC=1 XBOX=12.42 YBOX=12.42 ZBOX=12.42 >
 SWR1=4.97 SWR2=6.21
FRAGNAME=WATER   !   1
A01O                  -0.4270944369       -3.0644229073        0.2992953790
A02H                  -0.8171330954       -2.1965974462        0.3060822181
A03H                   0.4896040384       -2.9445730236        0.4860441606
FRAGNAME=WATER   !   2
A01O                   0.3306150876        0.2911829239        0.6791117572
A02H                  -0.3938554077        0.0654378183        0.1051092347
A03H                   0.0037671409        0.2161300027        1.5606517026
FRAGNAME=WATER   !   3
A01O                  -0.2874724656        0.1636436157        3.3596352538
A02H                   0.3203308408       -0.3321652943        3.8981943620
A03H                  -1.1341842636       -0.2337799423        3.4809152752
FRAGNAME=WATER   !   4
A01O                   3.2795265538       -0.1655591636        0.6615287903
A02H                   2.3288879226       -0.1921353889        0.6319121602
A03H                   3.5714746680       -0.1181826893       -0.2340698727
FRAGNAME=WATER   !   5
A01O                   1.0742806893        1.9953433301       -1.5769231907
A02H                   0.6759108576        2.0729083167       -0.7163522190
A03H                   1.8987151826        2.4510116780       -1.5294961992
FRAGNAME=WATER   !   6
A01O                  -3.4944157508        3.2777437147        2.4837735373
A02H                  -2.7463873809        3.3560787614        1.9010090684
A03H                  -4.2389419064        3.6029441970        2.0047112792
FRAGNAME=WATER   !   7
A01O                  -0.3673785157        3.5834144729        5.0258243834
A02H                  -0.7065649244        3.7805381702        4.1589956371
A03H                   0.5689246560        3.6842314425        4.9734077236
FRAGNAME=WATER   !   8
A01O                   2.8160047025        4.7275291110        0.1896278977
A02H                   3.4728913902        5.2628946159        0.6222719813
A03H                   3.2623095249        4.2682969870       -0.5028264752
FRAGNAME=WATER   !   9
A01O                   7.0469496947       -0.8133045269        1.1967809777
A02H                   6.5466200276       -1.3451870568        1.8067551133
A03H                   7.9508194681       -0.8946986245        1.4536265159
FRAGNAME=WATER   !  10
A01O                   4.7173227717       -2.0020248934        2.3541234399
A02H                   4.1494867020       -1.3565188305        1.9464699495
A03H                   4.5544259299       -1.9503549154        3.2816847744
FRAGNAME=WATER   !  11
A01O                   9.5953122567       -1.8230060296        2.7125133476
A02H                   9.1072044832       -2.4379786264        3.2499673027
A03H                   9.5441136967       -2.1454712772        1.8276573886
FRAGNAME=WATER   !  12
A01O                  10.1833202504       -0.7632049408       -0.2796738028
A02H                   9.9947648025       -0.0154273965       -0.8369644222
A03H                   9.9191709026       -1.5281687230       -0.7640607664
FRAGNAME=WATER   !  13
A01O                   6.6081138855        4.1121767868        1.2525802268
A02H                   6.6444499702        4.7754348957        0.5713566092
A03H                   6.0633916818        4.4647247110        1.9370967559
FRAGNAME=WATER   !  14
A01O                   2.9568042536        1.5152452281        3.3820544920
A02H                   2.2327072813        1.5301947365        2.7649991187
A03H                   3.7454009613        1.5594947701        2.8665620995
FRAGNAME=WATER   !  15
A01O                   5.5834608939        0.8261872142        3.6026291096
A02H                   6.2254167139        0.3390386890        3.0967869541
A03H                   6.0718130894        1.4176504320        4.1514993961
FRAGNAME=WATER   !  16
A01O                   9.0025342850        0.6043978821        3.7505532394
A02H                   9.1673742551        1.3899310599        3.2396103287
A03H                   9.3176823514       -0.1189724776        3.2338403446
FRAGNAME=WATER   !  17
A01O                   4.9020725745        6.2435738512        1.6142456910
A02H                   5.0682259147        7.0562953578        1.1482263052
A03H                   4.7895563270        6.4762874376        2.5213067022
FRAGNAME=WATER   !  18
A01O                   5.8822834068        4.2584520984        4.0269829508
A02H                   6.4319572616        3.5226718986        4.2755456158
A03H                   5.1207907544        4.2199840047        4.5821625102
FRAGNAME=WATER   !  19
A01O                   7.0065175083        2.2510167891        5.6475036645
A02H                   7.9573811150        2.2746077147        5.6719805226
A03H                   6.7095664467        2.7685761036        6.3779334143
FRAGNAME=WATER   !  20
A01O                   9.2316539765        6.2210669749       -0.1079107731
A02H                   8.7187803078        5.9596508047       -0.8654854779
A03H                   9.7580649377        5.4743572383        0.1263780787
FRAGNAME=WATER   !  21
A01O                   5.2927644688        8.7770829636        0.2933500078
A02H                   4.6475028266        9.0225255897       -0.3613961857
A03H                   5.1292263011        9.3233839137        1.0446061136
FRAGNAME=WATER   !  22
A01O                   5.7145949239        7.0741306757        4.6488168110
A02H                   6.4248516919        7.6467038514        4.3786455149
A03H                   5.9914241246        6.1952241674        4.4476598079
FRAGNAME=WATER   !  23
A01O                   8.2256554414        7.9940423176        3.2789858504
A02H                   8.8069778134        7.4175169098        3.7637332083
A03H                   8.5224025599        7.9781946898        2.3838516722
FRAGNAME=WATER   !  24
A01O                   8.2377445074        9.0115929624        0.2861670715
A02H                   7.3344375691        8.9374575241        0.5757145795
A03H                   8.5212713583        8.1370569935        0.0755143700
FRAGNAME=WATER   !  25
A01O                   5.6253809180        6.6448346331        7.3685696145
A02H                   5.3749073525        7.0806505187        6.5607176760
A03H                   5.0753085863        7.0041581921        8.0452395539
FRAGNAME=WATER   !  26
A01O                   4.7193389365        6.0806050454       10.2168887975
A02H                   4.8818123191        5.1442108283       10.2623367606
A03H                   3.8068770978        6.2016774035       10.4226315343
FRAGNAME=WATER   !  27
A01O                   7.2574646626        5.4955151796       10.2293793729
A02H                   7.3035098063        6.3314304042        9.7772479441
A03H                   7.5387082895        4.8428433833        9.6093013576
FRAGNAME=WATER   !  28
A01O                   9.7806175492        2.0640655774        5.9149160131
A02H                   9.9632841634        1.3697078304        5.2905783847
A03H                  10.5799859791        2.5564279860        6.0052740154
FRAGNAME=WATER   !  29
A01O                   4.1487906180        9.4236246155        4.9766058935
A02H                   3.9564934425        8.5453839041        4.6651379231
A03H                   4.4153429058        9.3332522160        5.8768047072
FRAGNAME=WATER   !  30
A01O                   6.2129442089        8.3736896663        9.6625966162
A02H                   6.4858185115        9.0589791212       10.2636084504
A03H                   5.6756692057        7.7811556455       10.1624107830
FRAGNAME=WATER   !  31
A01O                   8.7397409189        5.9110987150        7.4054936921
A02H                   9.6760154579        5.7749542184        7.3047370021
A03H                   8.5839263108        6.8241501618        7.2276340287
FRAGNAME=WATER   !  32
A01O                   8.3663254416        8.8274125136        7.2215023411
A02H                   7.5426544707        8.5154960900        7.5814627885
A03H                   8.2015169119        9.0239782996        6.3138816951
FRAGNAME=WATER   !  33
A01O                  -3.0290301394        5.3330536810        4.3201258249
A02H                  -3.2922885352        4.6557454545        3.7059224131
A03H                  -3.2428152729        5.0090944635        5.1797312804
FRAGNAME=WATER   !  34
A01O                  -0.5336493249        5.7180774615        7.4779909504
A02H                  -0.4117416786        5.5998489321        6.5417977075
A03H                  -0.0153004894        6.4678728189        7.7202647702
FRAGNAME=WATER   !  35
A01O                   1.9635015199        7.2636799368        6.9155796401
A02H                   1.8449995833        8.2057538534        6.8543319958
A03H                   2.0043063404        6.9434147351        6.0293853251
FRAGNAME=WATER   !  36
A01O                   3.0540126116        3.9219011930        4.9435065931
A02H                   3.1548373113        3.8593650900        5.8875515408
A03H                   2.9090715988        3.0429879995        4.6335406304
FRAGNAME=WATER   !  37
A01O                  -0.8982396050        6.9491154792        4.2198196408
A02H                  -0.8371048517        7.5505232711        4.9545770545
A03H                  -1.6958219680        6.4608621622        4.3424828757
FRAGNAME=WATER   !  38
A01O                  -0.8430376011        9.2469353424        9.9444387994
A02H                  -1.2472486203        8.5255705213        9.4737547286
A03H                  -0.7567280099        8.9639380523       10.8400047575
FRAGNAME=WATER   !  39
A01O                   4.7253508022        9.7263970656        7.6372759965
A02H                   5.1508341170        9.2603239915        8.3493413626
A03H                   4.9223175857       10.6401155465        7.7633625563
FRAGNAME=WATER   !  40
A01O                   1.9677038088        6.6499740601        4.3046975227
A02H                   2.2229968951        5.7409916989        4.1869106211
A03H                   1.0353510761        6.6835875007        4.1662644532
FRAGNAME=WATER   !  41
A01O                  -0.6334359372       -3.3625301832        6.0617973406
A02H                  -1.4275662056       -3.0098760367        6.4494691305
A03H                  -0.1586860441       -2.6257877686        5.7133746805
FRAGNAME=WATER   !  42
A01O                   0.4262105473       -0.3445168480        9.3973492931
A02H                   0.6957529556        0.2160077087       10.1173884297
A03H                   0.2929567704       -1.2027954411        9.7650128402
FRAGNAME=WATER   !  43
A01O                   4.1835381709       -0.5326925751       10.1629193580
A02H                   5.1153667955       -0.6814115171       10.0409548613
A03H                   3.7916178465       -0.5900707982        9.3069512535
FRAGNAME=WATER   !  44
A01O                   3.9353318976        0.2222618834        6.2275363871
A02H                   3.0729563422        0.1390084937        5.8342495684
A03H                   4.5499779341        0.2603506896        5.5131592532
FRAGNAME=WATER   !  45
A01O                   0.9290952712        0.1097282655        6.6954945977
A02H                   0.7054370121        0.1130157936        7.6202991299
A03H                   0.7469695162        0.9780938373        6.3755779837
FRAGNAME=WATER   !  46
A01O                   0.2945260283        2.8667738115        8.1802323219
A02H                   0.0251429779        3.7515806328        7.9569681081
A03H                   0.1244106422        2.7624710032        9.1020549063
FRAGNAME=WATER   !  47
A01O                   3.7805399548        2.9262985529       10.4567512810
A02H                   4.0548954104        2.3890467185        9.7209613670
A03H                   4.4829645837        2.8936945149       11.0853304835
FRAGNAME=WATER   !  48
A01O                   3.1668764051        2.8681310629        7.5134907413
A02H                   2.3232229436        2.9463429416        7.9464214353
A03H                   3.2506849519        1.9642704370        7.2573905799
FRAGNAME=WATER   !  49
A01O                  -1.5643631215        3.5757122400       -0.2362256341
A02H                  -0.8292115272        3.7513187575        0.3417118468
A03H                  -1.3052177886        2.8517505104       -0.7823925568
FRAGNAME=WATER   !  50
A01O                  -0.9460624190        6.6876040488        1.4510452429
A02H                  -0.8736150710        6.8971919619        2.3763136016
A03H                  -0.9213456578        7.5101240207        0.9901491870
FRAGNAME=WATER   !  51
A01O                   0.5914941544        4.2626748189        1.8400933560
A02H                   1.3282937886        4.1451480976        1.2496604508
A03H                   0.3194195087        5.1611466975        1.7489952411
FRAGNAME=WATER   !  52
A01O                   2.0270448039        7.1641600124       -2.6302220028
A02H                   1.1102195734        6.9570389442       -2.4824735425
A03H                   2.1466115962        7.1856851407       -3.5655378041
FRAGNAME=WATER   !  53
A01O                  -0.5630227481        5.9313872174       -2.0038705204
A02H                  -1.1586550301        5.4834936117       -2.5954030636
A03H                  -1.0384346078        6.0657642767       -1.2004393995
FRAGNAME=WATER   !  54
A01O                   1.3390942982       10.0895571467        4.3055564160
A02H                   1.4597976629        9.5806028521        3.5107649524
A03H                   2.1982487321       10.2123342946        4.6748186899
FRAGNAME=WATER   !  55
A01O                   2.2199953438        8.5437065923        1.9628694008
A02H                   2.8235121615        8.7671067027        1.2620433963
A03H                   2.2638185763        7.6067721281        2.0619074270
FRAGNAME=WATER   !  56
A01O                   2.6780053817        9.5566617280       -0.9680893119
A02H                   2.4596003332        8.9631885671       -1.6789944320
A03H                   2.9451874800       10.3663733480       -1.3712716725
FRAGNAME=WATER   !  57
A01O                   6.5641553988       -0.4770897413        7.6234732194
A02H                   6.3912389893        0.0579884110        6.8559521880
A03H                   7.3642808464       -0.1494320664        8.0003218802
FRAGNAME=WATER   !  58
A01O                   7.1161924000       -1.1762176531       10.7604174759
A02H                   7.9697342327       -1.0811913571       10.3508645603
A03H                   7.2779914693       -1.3513061672       11.6729635133
FRAGNAME=WATER   !  59
A01O                   9.2666656438       -1.1960903290        8.6476364437
A02H                   8.9221695346       -1.8342536936        8.0317085274
A03H                  10.2033360797       -1.3066508708        8.6478767245
FRAGNAME=WATER   !  60
A01O                   7.5672493921       -1.7536476882        5.1763474263
A02H                   6.7678131914       -1.6775102592        5.6866435177
A03H                   7.7235474966       -0.9030826960        4.7999363559
FRAGNAME=WATER   !  61
A01O                   5.8627361804        3.8511530865        7.7600956136
A02H                   5.9760279185        4.7871080925        7.6318362816
A03H                   4.9415375796        3.7134537535        7.9084439488
FRAGNAME=WATER   !  62
A01O                   5.7257563302        1.8406054522       12.2613195451
A02H                   5.5915972628        1.0525278057       12.7772964970
A03H                   6.3159623632        2.3845506164       12.7566534662
FRAGNAME=WATER   !  63
A01O                  10.5215324137        1.4327496429       10.3099624018
A02H                  10.9359838705        0.7999098634        9.7328653121
A03H                   9.7937751654        1.7925643334        9.8298811868
FRAGNAME=WATER   !  64
A01O                   7.8150892965        2.5703713063        9.5427167022
A02H                   7.2889405035        2.0865008850       10.1706769794
A03H                   7.2387311401        2.7940557601        8.8304304278
 $END
 $MD READ=.TRUE. MBT=.FALSE. MBR=.FALSE. TTOTAL=    1.00E-12
 MDINT= VVERLET     DT= 0.10E-15 NVTNH= 0  NSTEPS=    5
 RSTEMP=.F. DTEMP=   100.00 LEVERY= 5
 RSRAND=.F. NRAND=  1000 NVTOFF=  0 JEVERY=    5
 PROD=.F.   KEVERY=   5 DELR=   0.020
Batht(1)=300.00
TVEL(1)=     ! EFP TRANSLATIONAL VELOCITIES (BOHR/PS) !
  -2.016028003E+00  -3.443033032E+00   1.661095756E+00
  -4.429005498E+00  -1.753676584E+00   1.906163969E+00
  -3.450299779E+00   2.771278862E+00  -3.624386442E-02
   1.215565810E+01  -1.510111472E+00  -2.250035987E+01
   1.354357582E+01   1.305587287E+01   5.371733764E+00
  -1.214685064E+00   7.502505929E+00  -2.702669792E+00
   5.994808788E-01   2.303033445E+00  -9.994471265E-01
   9.092664045E+00  -2.842061771E+00  -7.975553604E+00
   3.108790717E+00  -5.632703844E+00  -3.476677720E+00
   1.188830957E+00   4.493651604E+00   6.004286247E-01
   7.337745508E+00  -1.422780041E+01   2.995684382E+00
  -1.055037875E+01   8.763626623E+00   1.013285167E+01
   1.007063786E+01   9.799686494E-01  -7.184111566E+00
   8.556965585E+00   1.064979875E+01   3.710201919E+00
  -1.075767665E+01   8.210302971E+00   1.542442471E+00
  -1.490505002E+00  -9.983451153E+00   3.417499381E+00
  -6.840667472E+00   6.391840337E-01   4.233651507E+00
   1.158740688E+01  -2.230228865E+00  -3.018925967E+00
   5.300958922E+00  -8.249366501E+00   1.043561644E+01
   2.310055260E+00   3.288434317E+00  -8.456194981E+00
   5.038326038E+00   1.046759008E+00   5.730415618E+00
   3.049699027E+00  -2.253147204E+00   6.236053392E+00
  -7.224329742E+00   1.471828865E+00   1.944905587E-01
   7.669217352E+00   4.713485902E+00   8.225661243E+00
  -3.897754317E+00  -7.581319845E-01   1.115672616E+00
   1.460426145E+00  -8.424629539E+00  -3.304381333E+00
   1.203148615E-01   7.059653885E+00   1.141816728E+01
  -1.022969154E+01   6.349605082E+00  -4.350689834E+00
  -3.681934689E+00  -1.132981806E+01   4.233257745E+00
  -7.387941976E+00   9.749135592E+00  -4.659784458E+00
  -1.269449947E+00  -8.738773271E-01   1.914934596E+00
   5.011643663E+00  -4.106572571E+00   9.484545550E+00
  -3.848554321E+00   9.738044064E+00   5.863359689E-02
   6.520973894E+00  -3.694017361E+00  -1.030858575E+01
  -5.427578047E+00   3.546104331E+00   1.230280682E+01
  -3.380823818E+00   2.635214498E+00  -2.005644417E+00
   1.361260276E+01  -6.950013513E+00  -1.286419243E+01
  -7.078211247E+00  -4.255432626E+00   5.892794259E+00
   8.704251103E-01  -1.209539105E+01   3.777567538E+00
   2.562046585E+00   4.032622199E+00  -3.803673628E+00
  -2.488491390E+00  -1.060397121E+00   1.391349374E+00
  -3.137103705E+00   5.242591752E+00   6.374492744E+00
   6.848565632E+00  -7.288940287E+00   8.436119711E+00
   7.883116404E+00   7.826005382E+00  -4.573722009E+00
  -7.331783199E-01  -8.070928445E+00  -5.622442017E+00
   6.974784861E-01   6.571041567E+00   9.961442517E-01
  -9.031377082E-01  -5.586807671E-01  -1.799704852E+01
  -1.190678836E+01  -1.571658005E+01   1.055400231E+01
   8.762115744E+00  -3.783852984E+00  -5.227919077E+00
   8.652193763E+00   1.611145390E+00  -9.506118718E+00
  -1.068206647E+01   1.475936797E+00   5.033406071E+00
  -8.927666580E+00  -4.254783573E+00   5.099659881E+00
  -3.213312381E+00   6.021695861E+00   1.176840059E+01
   5.808596278E+00   1.514513350E+01   7.588332957E+00
   1.086089524E+01   9.157231785E+00   1.386641171E+00
  -1.259355235E+01  -2.918628856E+00  -2.084826472E+00
   1.342178860E+01  -6.392631033E+00   6.635574312E+00
   5.627470390E+00   1.235722117E+00   5.613634307E+00
  -1.334544810E+01  -2.357521273E+00  -6.156399591E+00
  -9.616484248E+00  -5.651501496E+00  -7.202938391E-01
   8.116684297E+00   3.297424431E+00   6.929577446E+00
  -4.049008868E+00   7.090637248E+00   1.250731594E+01
  -1.188777572E+00   4.261198797E+00  -1.497993184E+00
  -7.140798003E+00   6.318789425E-01  -6.670581784E+00
QUAT(1)=     ! EFP QUATERNIONS !
   3.527717799E-01  -6.787786893E-01   5.309736909E-01  -3.645250359E-01
  -6.420273396E-01   4.724081136E-01   4.778587616E-01   3.691645614E-01
  -6.041279169E-01  -6.522809092E-01   2.137200977E-01   4.048244008E-01
  -2.264779498E-01  -2.036083865E-01  -6.588432722E-01   6.878785546E-01
   7.912084617E-01  -5.231271292E-01   3.154640483E-01   2.845366401E-02
  -1.170472477E-01  -1.375369777E-01  -6.309194884E-01  -7.545356987E-01
   1.001958402E-01   2.921253009E-01  -6.672499442E-01   6.777913500E-01
   2.809436343E-01  -5.538141949E-01   7.217675511E-01   3.056339543E-01
   7.342066871E-01  -5.852246963E-01  -1.069082839E-01   3.271440267E-01
   2.966368381E-01  -8.005336067E-01  -2.283852493E-01  -4.679665680E-01
  -1.077582964E-01  -5.791998398E-01  -2.680315165E-01   7.622826256E-01
   1.400986777E-02  -2.031975304E-01  -9.785703866E-01  -3.024046346E-02
   5.192786963E-03  -7.081119075E-01  -3.113705515E-01  -6.337183453E-01
  -2.061496246E-03  -3.850972064E-02   6.990118646E-01  -7.140694397E-01
   6.544314015E-01   3.010966668E-01  -2.307681236E-01   6.540691179E-01
   1.713114166E-02  -2.176327012E-01   9.746491378E-01  -4.900601494E-02
   8.978180470E-02   8.282947596E-01   3.134731976E-02   5.521633493E-01
  -8.100049103E-01  -4.446062229E-01   2.747731798E-01   2.659267785E-01
   7.052289118E-01   5.787390528E-01   1.687122929E-03   4.095246565E-01
   4.845488835E-01  -1.867565648E-01  -7.932187432E-01   3.180226256E-01
  -4.062946230E-01   6.143332804E-01   1.421505159E-01   6.612960992E-01
  -9.331525837E-02  -5.327551195E-01   8.342794389E-01   1.069675796E-01
   3.144717459E-01  -4.695400342E-01   3.114980180E-01   7.639428395E-01
   2.354853461E-01  -6.922959794E-01  -5.370908733E-01   4.204834390E-01
   2.006062714E-01  -6.340463989E-01  -3.464296219E-01  -6.616107655E-01
  -7.317896229E-01  -2.739532461E-01   2.820109810E-01   5.566896562E-01
   7.135413188E-02  -1.515087878E-01   9.834450962E-01  -6.920562001E-02
   5.066653485E-01   9.082284423E-02  -3.181929147E-01   7.961122437E-01
  -8.632457030E-01   1.181020593E-01   4.797366798E-01  -1.034962699E-01
  -2.810279367E-01  -9.516160484E-01  -1.241419462E-01  -6.242789838E-03
   5.740130613E-01   2.187936052E-01   3.209982660E-01   7.208317952E-01
  -3.891402843E-01  -3.278820453E-01  -4.746439900E-01   7.181756653E-01
   7.661768168E-01  -1.448845402E-01  -6.054056387E-01  -1.595793473E-01
   2.149596775E-01   3.851627109E-01  -2.507686126E-01   8.617175442E-01
   2.874896809E-01   1.774328647E-02   9.557394888E-01  -5.997406670E-02
  -8.107176835E-02  -8.789365552E-01   2.121435090E-02   4.695187447E-01
  -3.656800843E-01  -8.623736536E-01  -3.393645349E-01   8.614795455E-02
   7.999806163E-01  -2.169123653E-01  -5.589583807E-01  -2.335739463E-02
   9.320848410E-01   1.210749630E-02   2.075435121E-01   2.966427958E-01
  -5.564015930E-01  -2.786343541E-01   3.392092125E-01   7.054908038E-01
  -6.653805199E-01   2.730293492E-01  -5.426108037E-01   4.339323148E-01
  -1.250845070E-01  -9.813904369E-01   7.689985890E-02   1.237460635E-01
   1.203985924E-01  -2.346236892E-01   6.447174244E-01   7.174924014E-01
  -6.724832379E-02  -8.898315551E-02  -6.724963744E-01   7.316476525E-01
   8.723141587E-01   7.294584921E-02   4.537850545E-01  -1.668113783E-01
   1.105597377E-01  -8.917737884E-01  -1.666085444E-01  -4.059034955E-01
   6.430072167E-01   1.983705018E-01  -5.445486099E-01   5.006572427E-01
   1.325294299E-01  -7.485127394E-01  -5.166045966E-01   3.940613149E-01
   1.181523933E-01  -7.071240599E-01   5.466330100E-01   4.326753150E-01
   8.392234564E-01  -1.031597863E-02   5.418809579E-01   4.430122249E-02
  -3.346384848E-01  -2.966952238E-01  -2.716853591E-01  -8.521596648E-01
  -2.422412208E-01  -3.076625260E-01  -5.750602757E-01   7.183095714E-01
   6.880352909E-01  -3.462350156E-01  -4.351776874E-01  -4.662071780E-01
   5.347487888E-01   1.635201807E-01  -5.162382252E-01   6.486932852E-01
  -3.301561994E-01  -3.551172959E-01   8.714207151E-01   7.425986403E-02
   5.530479511E-03   9.788928975E-02  -1.638734721E-01   9.815969570E-01
   4.076467317E-03  -5.727315257E-01   4.867323137E-01  -6.595859585E-01
  -5.582553231E-01  -6.401196153E-01   4.238369872E-01  -3.145792119E-01
   4.688200772E-01  -9.592154499E-02  -5.655372953E-01   6.716951392E-01
  -7.371063611E-01   1.249251282E-01  -4.746642270E-01   4.645016644E-01
  -2.093549062E-01  -6.819186796E-01  -6.211382748E-01  -3.245684538E-01
   9.415351825E-01  -2.421972215E-01  -5.560913318E-02   2.275074292E-01
  -1.788105910E-01  -5.185888177E-02   4.136229148E-01   8.912090177E-01
  -5.369370480E-01  -4.178287827E-01  -3.052068038E-01   6.663081282E-01
RVEL(1)=     ! EFP ANGULAR VELOCITY (RAD/PS) !
  -8.446092350E+00   2.515198340E+01   1.368041471E+01
  -7.161864559E+00   1.480396947E+01   4.647127993E+00
   6.242083395E-01  -1.772476077E+01  -2.796858192E-02
  -1.784553520E+01   1.012700798E+00   2.599495878E+00
  -1.674192870E+01  -1.611286571E+01  -8.971990361E+00
  -9.622498798E+00   1.417197138E+01  -3.336592222E+00
   7.471012134E-01   1.162264984E+01   4.830347840E+00
   3.553077481E+00   7.527893747E+00  -2.797322136E+00
  -2.055318260E+01  -1.754885213E+01   4.033787172E+00
   4.360081963E+00   5.306715616E+00  -7.630283330E-01
   5.347688101E+00   1.057361472E+01   8.827880730E+00
  -3.303072886E-01   7.855937046E+00  -2.050524154E+01
   1.868120977E+01   1.060090803E+01   7.001576187E+00
   1.777282062E+01  -5.496964496E+00  -2.277009069E+01
  -3.300263208E+00   5.575788682E+00  -3.706902234E+00
  -9.540936052E+00  -1.841766497E+01   2.114929885E+01
   1.307299327E+01  -1.267842570E+01   2.851601859E+01
  -1.221981825E+01  -7.450511122E+00  -6.069889465E+00
   1.077515913E+01  -3.400717866E+00   2.429809658E+01
  -7.348984980E+00  -9.924577661E+00  -8.439142332E+00
  -4.196472205E+00   3.666057141E+01   9.538492495E+00
  -1.484298258E+01  -1.466345985E+01   1.754608752E+01
  -9.457635033E+00  -3.612788052E+01   6.604983370E+00
   4.286342154E+00  -4.838190125E+01   1.270385912E+01
  -5.809363209E+00  -2.902782372E+01   1.919893986E+00
  -8.762034075E+00  -2.526164164E+01   1.289894052E+00
   4.703973885E+00  -3.456088160E+01   2.476502217E+00
  -9.832453336E+00   2.014345765E+01   6.027778732E+00
  -1.465547951E+01  -2.785821906E+01  -1.155239912E+00
   1.212487617E+01  -3.120613749E+00   1.388285078E+01
   6.704353776E+00  -2.263308125E+01   1.535871678E+00
  -1.427588992E+01  -3.415032991E+01  -5.666189692E+00
  -2.221492646E+00  -2.275508826E+01  -1.165549898E+00
   7.736382782E+00   1.902383507E+01   1.569524401E+01
   1.386395666E+01   2.972032674E+00   4.733795085E+00
  -2.129833835E+00   2.034533391E+01  -3.313334631E-01
  -6.657974673E+00  -1.870684293E+01   1.038953571E+01
  -1.278799556E+00   2.193140724E+00  -3.019751192E+00
   9.544468055E+00  -8.393414301E+00   2.984107016E+01
   3.917161397E+00  -9.507934933E+00   6.008141087E+00
   1.945277651E+01  -3.287347444E+01   1.779508976E+01
   3.070275248E+01  -2.178990803E+01  -4.579158895E-01
  -1.359784986E+01  -3.867417552E+01   1.397249843E+01
  -5.283282948E+00  -6.969632876E-01   4.362025168E+00
  -2.044654773E+00  -3.179419852E+01  -2.537511468E+01
  -1.764464102E+01  -1.908521791E+01  -8.170443131E+00
  -1.461903126E+01   3.249404409E+00  -3.066794864E+00
  -2.341904768E+01  -2.716282026E+00   2.061409145E+01
   3.223881356E+01   2.243993863E-01  -1.148504101E+01
  -1.828875256E+00  -2.525032710E+01  -8.707823557E+00
  -1.244216822E+01   2.214587409E+01  -1.453575462E-02
   7.453253607E+00  -7.268477422E+00  -1.263278660E+01
  -3.437467708E+01  -6.436442136E+00   1.820229333E+01
   1.402893334E+01   2.363742536E+01   7.379828999E-01
  -1.112826410E+01  -3.229949936E+01  -2.070584253E+01
  -8.013767367E-01  -5.618753283E+00  -6.968675054E-01
   4.167683136E+00   1.917786277E+01   1.872746963E+01
   1.269118940E+01   1.345426981E+01   3.259784686E+00
  -1.063186844E+01   4.275058868E+00  -1.034913855E+01
   1.063213419E+01  -4.224919535E+01  -7.523843571E-01
   1.339343936E+01   3.953107720E+01   1.017558467E+01
  -2.422967359E+00  -5.646468645E+00   2.523756204E+01
  -3.649867803E-01   1.210079446E+01  -1.290571334E+01
   1.713595265E+01  -3.281543135E+01   4.083569647E+01
QUAT1D(1)=     ! EFP QUATERNION 1ST DERIV. !
   2.183603257E+12  -7.551146796E+12  -1.251951351E+13  -2.062028918E+12
   7.629990126E+10  -3.367264941E+12   6.653591553E+12  -4.170950517E+12
   3.530126580E+12   2.011967884E+12   5.586549509E+12   5.560579715E+12
  -6.491652563E+12  -5.509810676E+12   2.811781658E+12  -1.075097329E+12
   5.216719116E+12   5.852687663E+12  -2.536282233E+12  -9.338226196E+12
   2.540570559E+12   7.905676425E+12   8.473474156E+11  -2.543680352E+12
  -2.984080732E+12   3.888805217E+12   3.372047249E+12   2.084671663E+12
  -1.658039629E+12  -1.780779233E+12  -2.012898270E+12   3.050837460E+12
   5.915123975E+11  -5.780801050E+12  -1.750316538E+12  -1.224073468E+13
   2.044986862E+12  -3.010273557E+11  -1.298885757E+12   2.445147532E+12
  -5.869920474E+12   3.930894552E+12   1.442319354E+10   2.162067821E+12
   2.040476343E+12   3.992425860E+12  -4.904232803E+11  -1.001143956E+13
   3.788434508E+12  -4.287086230E+12  -5.923324470E+12   7.731759992E+12
  -7.735878503E+12  -4.447762557E+12   8.217236932E+12   8.306160939E+12
  -2.762341320E+12   7.770136353E+11  -1.452757382E+12   1.893617290E+12
   1.896854847E+12   9.028006452E+12   1.404198098E+12  -1.150254060E+13
   1.510521373E+13   2.527821402E+12   3.208871848E+12  -6.430242257E+12
   4.018839683E+12  -3.059508270E+12   5.798255122E+12   1.134893092E+12
   7.718378098E+12  -6.358644719E+12   7.790747583E+12  -4.337641912E+12