 $CONTRL SCFTYP=RHF RUNTYP=GRADIENT COORD=FRAGONLY $END                  
 $SYSTEM TIMLIM=100 MWORDS=1000 $END                                            
 $GUESS GUESS=HUCKEL $END                                                       
 $EFRAG
 coord=cart
 fragname=H2O
 A01O          -0.167787    1.645761    0.108747
 A02H           0.613411    1.102620    0.113724
 A03H          -0.093821    2.209720   -0.643619
 fragname=H2O
 A01O       1.51756895    -0.66742402    -0.08067400
 A02H       1.98964500    -1.09879899     0.61204702
 A03H       0.66839701    -1.09179795    -0.13974400
 fragname=H2O  
 A01O          -1.350388   -0.964879   -0.092208
 A02H          -1.908991   -1.211298    0.626207
 A03H          -1.263787   -0.018107   -0.055536 
 $END
          RUNTYP=MAKEFP EFFECTIVE FRAGMENT POTENTIAL DATA FOLLOWS...
          H2O     EFP GENERATED AT 16:18:57 27-DEC-2023    
 $H2O     
EFP DATA FOR H2O      SCFTYP=RHF     ... GENERATED WITH BASIS SET=XXX
 COORDINATES (BOHR)
A01O      -2.9309782350  -0.2164114201   0.0000000000  15.9949100  8.0
A02H      -3.6552194993   1.4409217348   0.0000000000   1.0078250  1.0
A03H      -1.1332252111   0.0769345244   0.0000000000   1.0078250  1.0
BO21      -3.2930988672   0.6122551574   0.0000000000   0.0000000  0.0
BO31      -2.0321017231  -0.0697384479   0.0000000000   0.0000000  0.0
 STOP
 MONOPOLES 
A01O      -8.1845870520   8.00000
A02H      -0.6347421387   1.00000
A03H      -0.6287256589   1.00000
BO21      -0.2863186645   0.00000
BO31      -0.2656264859   0.00000
 STOP
 DIPOLES 
A01O        0.3509379289    0.6581403384    0.0000000000
A02H       -0.0553022393    0.0867605018    0.0000000000
A03H        0.1015280714    0.0004668173    0.0000000000
BO21        0.0746711742   -0.3681544081   -0.0000000000
BO31       -0.3566281223   -0.1165431498   -0.0000000000
 STOP
 QUADRUPOLES 
A01O       -3.6592292728   -3.8381164545   -4.7257189494   -0.1449145385 >
           -0.0000000000    0.0000000000
A02H       -0.3744535609   -0.3571798896   -0.3778411262   -0.0016648021 >
            0.0000000000    0.0000000000
A03H       -0.3583837894   -0.3682852060   -0.3751510441    0.0071187646 >
            0.0000000000    0.0000000000
BO21       -0.0449382258    0.1114568926   -0.0886342077   -0.0801705105 >
            0.0000000000   -0.0000000000
BO31        0.1530593582   -0.0428021879   -0.0759035084    0.0304901997 >
           -0.0000000000   -0.0000000000
 STOP
 OCTUPOLES  
A01O          0.953816235      1.681861093      0.000000000      0.564516471 >
              0.000000000      0.248481733      0.000000000      0.266500764 >
              0.497208606      0.000000000
A02H         -0.095508363      0.104194076      0.000000000      0.038436919 >
              0.000000000     -0.026725272      0.000000000     -0.032446235 >
              0.041166708      0.000000000
A03H          0.133789448     -0.015851103      0.000000000     -0.009677095 >
              0.000000000      0.049023254      0.000000000      0.051287404 >
             -0.004989679      0.000000000
BO21          0.138296866     -1.051106880      0.000000000     -0.339422036 >
             -0.000000000      0.081026012     -0.000000000      0.045016199 >
             -0.322566946      0.000000000
BO31         -1.014792882     -0.355345400      0.000000000     -0.135974859 >
             -0.000000000     -0.310890435     -0.000000000     -0.302985593 >
             -0.122259088     -0.000000000
 STOP
 POLARIZABLE POINTS
CT1  -3.2930821339   0.6898230348   0.0000006174
    1.4852182473    3.1707091104    0.8114061921   -1.1835334477 >
   -0.0000005611    0.0000014704   -1.0175269228   -0.0000007526 >
    0.0000019720
CT2  -1.9692950337  -0.0276977404   0.0000007971
    3.7509401215    0.9927771772    0.8224772978    0.4124865804 >
    0.0000019958    0.0000004289    0.2448119003    0.0000026923 >
    0.0000005816
CT3  -3.0582301381  -0.4510386151  -0.5003666145
    1.5602175993    1.7785309404    2.7077240462    0.1749166019 >
    0.4702360933    0.8603711270    0.1757308308    0.5229397664 >
    0.9530864461
CT4  -3.0582312286  -0.4510403315   0.5003652000
    1.5602248726    1.7785399128    2.7077129361    0.1749192500 >
   -0.4702375279   -0.8603730263    0.1757334983   -0.5229417062 >
   -0.9530889997
 STOP
 DYNAMIC POLARIZABLE POINTS
CT  1  -3.2930821339   0.6898230348   0.0000006174 -- FOR W= 0.002792I A.U.
    1.4850356677    3.1703989352    0.8112988480   -1.1832805813 >
   -0.0000005614    0.0000014706   -1.0173233085   -0.0000007523 >
    0.0000019718
CT  2  -1.9692950337  -0.0276977404   0.0000007971
    3.7508169579    0.9928227106    0.8223830501    0.4125786775 >
    0.0000019961    0.0000004289    0.2450534538    0.0000026920 >
    0.0000005818
CT  3  -3.0582301381  -0.4510386151  -0.5003666145
    1.5603625483    1.7785913302    2.7077303385    0.1748921476 >
    0.4702681930    0.8603462797    0.1756798382    0.5229660588 >
    0.9531013071
CT  4  -3.0582312286  -0.4510403315   0.5003652000
    1.5603698220    1.7786003028    2.7077192285    0.1748947969 >
   -0.4702696277   -0.8603481791    0.1756825063   -0.5229679985 >
   -0.9531038607
CT  1  -3.2930821339   0.6898230348   0.0000006174 -- FOR W= 0.015107I A.U.
    1.4846399932    3.1684267032    0.8111725779   -1.1825116645 >
   -0.0000005612    0.0000014696   -1.0164366264   -0.0000007506 >
    0.0000019683
CT  2  -1.9692950337  -0.0276977404   0.0000007971
    3.7484715190    0.9927053604    0.8222529809    0.4122434539 >
    0.0000019949    0.0000004284    0.2445994789    0.0000026870 >
    0.0000005812
CT  3  -3.0582301381  -0.4510386151  -0.5003666145
    1.5597122497    1.7776551599    2.7054480252    0.1746569694 >
    0.4698260198    0.8595452732    0.1754451450    0.5221285363 >
    0.9515911823
CT  4  -3.0582312286  -0.4510403315   0.5003652000
    1.5597195161    1.7776641231    2.7054369288    0.1746596159 >
   -0.4698274535   -0.8595471712    0.1754478101   -0.5221304728 >
   -0.9515937318
CT  1  -3.2930821339   0.6898230348   0.0000006174 -- FOR W= 0.039002I A.U.
    1.4823204800    3.1569279653    0.8104359799   -1.1780169140 >
   -0.0000005603    0.0000014638   -1.0112723105   -0.0000007410 >
    0.0000019487
CT  2  -1.9692950337  -0.0276977404   0.0000007971
    3.7347910337    0.9920154212    0.8214942624    0.4102876554 >
    0.0000019879    0.0000004254    0.2419685612    0.0000026585 >
    0.0000005776
CT  3  -3.0582301381  -0.4510386151  -0.5003666145
    1.5559176346    1.7722016295    2.6922013030    0.1732922920 >
    0.4672536826    0.8548850716    0.1740831976    0.5172848370 >
    0.9428566594
CT  4  -3.0582312286  -0.4510403315   0.5003652000
    1.5559248587    1.7722105381    2.6921902853    0.1732949219 >
   -0.4672551103   -0.8548869608    0.1740858451   -0.5172867545 >
   -0.9428591857
CT  1  -3.2930821339   0.6898230348   0.0000006174 -- FOR W= 0.077996I A.U.
    1.4741580899    3.1172808501    0.8078889978   -1.1623683020 >
   -0.0000005568    0.0000014441   -0.9935357826   -0.0000007092 >
    0.0000018831
CT  2  -1.9692950337  -0.0276977404   0.0000007971
    3.6875462853    0.9895601618    0.8188713359    0.4035272021 >
    0.0000019638    0.0000004151    0.2331035650    0.0000025635 >
    0.0000005653
CT  3  -3.0582301381  -0.4510386151  -0.5003666145
    1.5427918430    1.7534575235    2.6472838683    0.1686713029 >
    0.4584582151    0.8389460509    0.1694703635    0.5010824876 >
    0.9136278152
CT  4  -3.0582312286  -0.4510403315   0.5003652000
    1.5427989217    1.7534662455    2.6472731169    0.1686738766 >
   -0.4584596221   -0.8389479101    0.1694729513   -0.5010843420 >
   -0.9136302635
CT  1  -3.2930821339   0.6898230348   0.0000006174 -- FOR W= 0.138651I A.U.
    1.4509074069    3.0104956176    0.8009304868   -1.1191159221 >
   -0.0000005467    0.0000013914   -0.9463053719   -0.0000006331 >
    0.0000017224
CT  2  -1.9692950337  -0.0276977404   0.0000007971
    3.5597489667    0.9823324347    0.8117094750    0.3852014861 >
    0.0000018989    0.0000003887    0.2107737046    0.0000023324 >
    0.0000005330
CT  3  -3.0582301381  -0.4510386151  -0.5003666145
    1.5070983597    1.7033990650    2.5315670210    0.1568625679 >
    0.4353278042    0.7969947722    0.1576742814    0.4609465823 >
    0.8411432604
CT  4  -3.0582312286  -0.4510403315   0.5003652000
    1.5071050506    1.7034072966    2.5315569514    0.1568649972 >
   -0.4353291564   -0.7969965523    0.1576767167   -0.4609482816 >
   -0.8411455158
CT  1  -3.2930821339   0.6898230348   0.0000006174 -- FOR W= 0.233223I A.U.
    1.3913650608    2.7681873459    0.7840795873   -1.0158202873 >
   -0.0000005201    0.0000012746   -0.8420971779   -0.0000005025 >
    0.0000014273
CT  2  -1.9692950337  -0.0276977404   0.0000007971
    3.2672115232    0.9622485778    0.7943887791    0.3431750734 >
    0.0000017521    0.0000003348    0.1678656764    0.0000019150 >
    0.0000004644
CT  3  -3.0582301381  -0.4510386151  -0.5003666145
    1.4240364214    1.5916644031    2.2913526715    0.1333258358 >
    0.3857235224    0.7068535057    0.1341212819    0.3851566992 >
    0.7039312670
CT  4  -3.0582312286  -0.4510403315   0.5003652000
    1.4240422555    1.5916715865    2.2913439924    0.1333279733 >
   -0.3857247544   -0.7068551150    0.1341234114   -0.3851581116 >
   -0.7039331587
CT  1  -3.2930821339   0.6898230348   0.0000006174 -- FOR W= 0.385897I A.U.
    1.2539665366    2.3114855974    0.7444551145   -0.8085256573 >
   -0.0000004577    0.0000010626   -0.6571622391   -0.0000003595 >
    0.0000010453
CT  2  -1.9692950337  -0.0276977404   0.0000007971
    2.7096350007    0.9074463677    0.7537595547    0.2639314247 >
    0.0000014768    0.0000002522    0.1112925576    0.0000013947 >
    0.0000003480
CT  3  -3.0582301381  -0.4510386151  -0.5003666145
    1.2575700284    1.3839192076    1.8914883390    0.0995724957 >
    0.3018801618    0.5539402846    0.1002114302    0.2807969518 >
    0.5142036263
CT  4  -3.0582312286  -0.4510403315   0.5003652000
    1.2575743538    1.3839246438    1.8914818675    0.0995741940 >
   -0.3018811809   -0.5539415993    0.1002131085   -0.2807979870 >
   -0.5142050196
CT  1  -3.2930821339   0.6898230348   0.0000006174 -- FOR W= 0.649114I A.U.
    0.9902016187    1.6357871767    0.6500192780   -0.5003216972 >
   -0.0000003431    0.0000007592   -0.4125833634   -0.0000002640 >
    0.0000006958
CT  2  -1.9692950337  -0.0276977404   0.0000007971
    1.8837596868    0.7714328554    0.6572995414    0.1541816042 >
    0.0000010662    0.0000001620    0.0658798002    0.0000009452 >
    0.0000002040
CT  3  -3.0582301381  -0.4510386151  -0.5003666145
    0.9763911863    1.0625953502    1.3577418061    0.0671281430 >
    0.1959293864    0.3598374955    0.0674102333    0.1759750467 >
    0.3227694300
CT  4  -3.0582312286  -0.4510403315   0.5003652000
    0.9763936138    1.0625986814    1.3577379371    0.0671293495 >
   -0.1959301095   -0.3598384167    0.0674114247   -0.1759757279 >
   -0.3227703298
CT  1  -3.2930821339   0.6898230348   0.0000006174 -- FOR W= 1.153904I A.U.
    0.6096632500    0.8939269771    0.4554092924   -0.2104572812 >
   -0.0000001918    0.0000004203   -0.1884306354   -0.0000001824 >
    0.0000004111
CT  2  -1.9692950337  -0.0276977404   0.0000007971
    0.9990839790    0.5153495929    0.4594822105    0.0595616042 >
    0.0000005917    0.0000000873    0.0375412714    0.0000005764 >
    0.0000000913
CT  3  -3.0582301381  -0.4510386151  -0.5003666145
    0.5942008779    0.6454859654    0.7819694812    0.0396381921 >
    0.0972238542    0.1785671549    0.0396351075    0.0903671366 >
    0.1660141670
CT  4  -3.0582312286  -0.4510403315   0.5003652000
    0.5942018194    0.6454875233    0.7819677288    0.0396388908 >
   -0.0972242541   -0.1785676625    0.0396358061   -0.0903675307 >
   -0.1660146694
CT  1  -3.2930821339   0.6898230348   0.0000006174 -- FOR W= 2.307592I A.U.
    0.2439392282    0.3252473612    0.2021481114   -0.0542604425 >
   -0.0000000661    0.0000001510   -0.0542253182   -0.0000000793 >
    0.0000001702
CT  2  -1.9692950337  -0.0276977404   0.0000007971
    0.3517144691    0.2194878651    0.2033535041    0.0148584732 >
    0.0000002107    0.0000000344    0.0148837752    0.0000002408 >
    0.0000000335
CT  3  -3.0582301381  -0.4510386151  -0.5003666145
    0.2353813184    0.2548088330    0.3052835715    0.0149799917 >
    0.0322281411    0.0592064128    0.0149498170    0.0315815599 >
    0.0581041173
CT  4  -3.0582312286  -0.4510403315   0.5003652000
    0.2353815735    0.2548093360    0.3052829919    0.0149802495 >
   -0.0322282857   -0.0592065982    0.0149500791   -0.0315817214 >
   -0.0581043210
CT  1  -3.2930821339   0.6898230348   0.0000006174 -- FOR W= 5.957643I A.U.
    0.0481210136    0.0600363461    0.0421976335   -0.0073175084 >
   -0.0000000114    0.0000000271   -0.0077547248   -0.0000000155 >
    0.0000000336
CT  2  -1.9692950337  -0.0276977404   0.0000007971
    0.0634245682    0.0448631813    0.0423320153    0.0021168936 >
    0.0000000375    0.0000000067    0.0025635526    0.0000000473 >
    0.0000000068
CT  3  -3.0582301381  -0.4510386151  -0.5003666145
    0.0469774498    0.0504552216    0.0604975542    0.0026831648 >
    0.0055828360    0.0102608228    0.0026784499    0.0055676726 >
    0.0102465494
CT  4  -3.0582312286  -0.4510403315   0.5003652000
    0.0469774927    0.0504553103    0.0604974484    0.0026832113 >
   -0.0055828620   -0.0102608566    0.0026784977   -0.0055677045 >
   -0.0102465899
CT  1  -3.2930821339   0.6898230348   0.0000006174 -- FOR W=32.239080I A.U.
    0.0018306465    0.0022255602    0.0016351972   -0.0002381631 >
   -0.0000000004    0.0000000010   -0.0002555601   -0.0000000006 >
    0.0000000013
CT  2  -1.9692950337  -0.0276977404   0.0000007971
    0.0023343513    0.0017240475    0.0016385322    0.0000700195 >
    0.0000000014    0.0000000002    0.0000877167    0.0000000018 >
    0.0000000003
CT  3  -3.0582301381  -0.4510386151  -0.5003666145
    0.0018323732    0.0019632769    0.0023406385    0.0001009351 >
    0.0002049031    0.0003766478    0.0001007849    0.0002051463 >
    0.0003775375
CT  4  -3.0582312286  -0.4510403315   0.5003652000
    0.0018323748    0.0019632801    0.0023406346    0.0001009368 >
   -0.0002049040   -0.0003766490    0.0001007866   -0.0002051475 >
   -0.0003775390
 STOP
 DIPOLE-QUADRUPOLE DYNAMIC POLARIZABLE POINTS
CT  1  -3.2930821339   0.6898230348   0.0000006174 -- FOR W= 0.002792I A.U.
       0.2679324881       0.0965071271      -0.0000008605      -0.0085873602 >
      -0.0605575375       0.0000012558      -0.0000007396       0.0000008739 >
      -0.0089532585      -0.1919500740       0.6047707253       0.0000021166 >
       0.8031924174      -0.1656066739      -0.0000041548       0.0000019529 >
      -0.0000035555       0.4626512352      -0.0000003364       0.0000014437 >
      -0.1076916787       0.0000015329      -0.0000016814       0.2955621900 >
      -0.1076916787       0.2955621900       0.0000012977
CT  2  -1.9692950337  -0.0276977404   0.0000007971
      -0.6785166580       0.4396940707      -0.0000062461       0.2131298872 >
       0.2680247892      -0.0000005121      -0.0000053051      -0.0000002288 >
       0.3904997472      -0.4520368041       0.0778097018      -0.0000016285 >
       0.0578175802       0.4313547805      -0.0000003749      -0.0000016220 >
      -0.0000003566       0.2472462071      -0.0000034617       0.0000000556 >
       0.3199554798      -0.0000000682       0.0000008083       0.0720393375 >
       0.3199554798       0.0720393375       0.0000016940
CT  3  -3.0582301381  -0.4510386151  -0.5003666145
       0.2728170491       0.4220307752       0.5913476645       0.4218094465 >
      -0.3188951617       0.2534087664       0.5765403903       0.2268250834 >
       0.0061195424      -0.4554347116       0.1600434970       0.2564534337 >
       0.1596373059       0.3579370969       0.9181391461       0.2297995238 >
       0.8703078520       0.0281016649      -0.7345987700       0.5770528187 >
       1.0032519388       0.5759406434       0.0108175352       1.8467570910 >
       0.9636995597       1.7771398124       0.7864198032
CT  4  -3.0582312286  -0.4510403315   0.5003652000
       0.2728237410       0.4220387544      -0.5913540840       0.4218174191 >
      -0.3188979561      -0.2534122936      -0.5765465817      -0.2268282270 >
       0.0061153660      -0.4554380912       0.1600479824      -0.2564567173 >
       0.1596417797       0.3579469465      -0.9181478978      -0.2298024594 >
      -0.8703160275       0.0280949072       0.7345907447      -0.5770576765 >
       1.0032512775      -0.5759454406      -0.0108299421       1.8467540824 >
       0.9636986313       1.7771365097      -0.7864001752
CT  1  -3.2930821339   0.6898230348   0.0000006174 -- FOR W= 0.015107I A.U.
       0.2679636100       0.0964259173      -0.0000008594      -0.0087431464 >
      -0.0604382515       0.0000012538      -0.0000007395       0.0000008736 >
      -0.0089628639      -0.1917168928       0.6043148950       0.0000021134 >
       0.8028773896      -0.1655341914      -0.0000041490       0.0000019514 >
      -0.0000035527       0.4624201478      -0.0000003339       0.0000014431 >
      -0.1076532188       0.0000015325      -0.0000016808       0.2954622041 >
      -0.1076532188       0.2954622041       0.0000012985
CT  2  -1.9692950337  -0.0276977404   0.0000007971
      -0.6782315803       0.4395799258      -0.0000062372       0.2128551407 >
       0.2679138847      -0.0000005114      -0.0000053012      -0.0000002284 >
       0.3903114024      -0.4516117087       0.0776792205      -0.0000016263 >
       0.0576729273       0.4312213854      -0.0000003748      -0.0000016201 >
      -0.0000003566       0.2471151084      -0.0000034596       0.0000000544 >
       0.3198432149      -0.0000000697       0.0000008102       0.0720158979 >
       0.3198432149       0.0720158979       0.0000016951
CT  3  -3.0582301381  -0.4510386151  -0.5003666145
       0.2727715384       0.4216154466       0.5905323065       0.4213939816 >
      -0.3185777527       0.2529877601       0.5758361192       0.2266083123 >
       0.0061441235      -0.4547695835       0.1597688368       0.2560324228 >
       0.1593623957       0.3577806668       0.9167965062       0.2295774001 >
       0.8693308855       0.0281253319      -0.7338592012       0.5761554624 >
       1.0016856330       0.5750479070       0.0104190570       1.8438908415 >
       0.9624299833       1.7748057917       0.7856019522
CT  4  -3.0582312286  -0.4510403315   0.5003652000
       0.2727782233       0.4216234175      -0.5905387187       0.4214019460 >
      -0.3185805437      -0.2529912822      -0.5758423047      -0.2266114528 >
       0.0061399516      -0.4547729601       0.1597733180      -0.2560357016 >
       0.1593668652       0.3577905061      -0.9168052466      -0.2295803329 >
      -0.8693390529       0.0281185818       0.7338511895      -0.5761603139 >
       1.0016849738      -0.5750526983      -0.0104314469       1.8438878392 >
       0.9624290577       1.7748024956      -0.7855823504
CT  1  -3.2930821339   0.6898230348   0.0000006174 -- FOR W= 0.039002I A.U.
       0.2681269499       0.0959500223      -0.0000008534      -0.0096430518 >
      -0.0597365842       0.0000012420      -0.0000007389       0.0000008716 >
      -0.0090273260      -0.1903597538       0.6016633353       0.0000020950 >
       0.8010263749      -0.1651151226      -0.0000041157       0.0000019424 >
      -0.0000035360       0.4610679505      -0.0000003197       0.0000014391 >
      -0.1074293985       0.0000015301      -0.0000016776       0.2948795742 >
      -0.1074293985       0.2948795742       0.0000013031
CT  2  -1.9692950337  -0.0276977404   0.0000007971
      -0.6765671907       0.4388942659      -0.0000061853       0.2112564372 >
       0.2672664133      -0.0000005075      -0.0000052784      -0.0000002262 >
       0.3892139169      -0.4491357517       0.0769263139      -0.0000016136 >
       0.0568394534       0.4304329468      -0.0000003743      -0.0000016090 >
      -0.0000003562       0.2463406336      -0.0000034473       0.0000000470 >
       0.3191892227      -0.0000000788       0.0000008210       0.0718790814 >
       0.3191892227       0.0718790814       0.0000017013
CT  3  -3.0582301381  -0.4510386151  -0.5003666145
       0.2724899681       0.4191993838       0.5857961580       0.4189771518 >
      -0.3167396852       0.2505569553       0.5717381879       0.2253508373 >
       0.0062909891      -0.4509232226       0.1581755340       0.2536010446 >
       0.1577676851       0.3568485769       0.9090152578       0.2282887932 >
       0.8636506559       0.0282698094      -0.7295611996       0.5709641578 >
       0.9926237663       0.5698830629       0.0081318762       1.8273066562 >
       0.9550728873       1.7612795878       0.7808518954
CT  4  -3.0582312286  -0.4510403315   0.5003652000
       0.2724966117       0.4192073066      -0.5858025281       0.4189850683 >
      -0.3167424564      -0.2505604477      -0.5717443385      -0.2253539599 >
       0.0062868441      -0.4509265816       0.1581799901      -0.2536042957 >
       0.1577721301       0.3568583566      -0.9090239326      -0.2282917099 >
      -0.8636587757       0.0282631034       0.7295532659      -0.5709689734 >
       0.9926231191      -0.5698878200      -0.0081441674       1.8273036897 >
       0.9550719786       1.7612763299      -0.7808324450
CT  1  -3.2930821339   0.6898230348   0.0000006174 -- FOR W= 0.077996I A.U.
       0.2684557183       0.0942783887      -0.0000008331      -0.0126368839 >
      -0.0572379807       0.0000012030      -0.0000007367       0.0000008645 >
      -0.0093583457      -0.1857117419       0.5925997533       0.0000020331 >
       0.7944591452      -0.1637155646      -0.0000040037       0.0000019114 >
      -0.0000034788       0.4563425790      -0.0000002729       0.0000014252 >
      -0.1066625182       0.0000015211      -0.0000016656       0.2928736438 >
      -0.1066625182       0.2928736438       0.0000013171
CT  2  -1.9692950337  -0.0276977404   0.0000007971
      -0.6707982291       0.4362696114      -0.0000060111       0.2057855603 >
       0.2650225580      -0.0000004943      -0.0000052000      -0.0000002190 >
       0.3854376587      -0.4406319134       0.0744318854      -0.0000015703 >
       0.0540938729       0.4275760603      -0.0000003727      -0.0000015710 >
      -0.0000003548       0.2435399042      -0.0000034048       0.0000000232 >
       0.3169400259      -0.0000001083       0.0000008556       0.0714050945 >
       0.3169400259       0.0714050945       0.0000017202
CT  3  -3.0582301381  -0.4510386151  -0.5003666145
       0.2713148942       0.4109398651       0.5696933221       0.4107153416 >
      -0.3105588667       0.2424777704       0.5577165696       0.2210973045 >
       0.0068402739      -0.4380602121       0.1527865922       0.2455130566 >
       0.1523745380       0.3533857050       0.8827828228       0.2239289167 >
       0.8442714284       0.0288466382      -0.7149188523       0.5535789550 >
       0.9622677957       0.5525831594       0.0007027616       1.7717333814 >
       0.9302761513       1.7156809890       0.7647042374
CT  4  -3.0582312286  -0.4510403315   0.5003652000
       0.2713213957       0.4109476228      -0.5696995484       0.4107230941 >
      -0.3105615694      -0.2424811634      -0.5577226005      -0.2211003661 >
       0.0068362204      -0.4380635108       0.1527909632      -0.2455162151 >
       0.1523788996       0.3533952810      -0.8827912759      -0.2239317785 >
      -0.8442793855       0.0288400825       0.7149111793      -0.5535836494 >
       0.9622671881      -0.5525878011      -0.0007147205       1.7717305345 >
       0.9302752984       1.7156778584      -0.7646852971
CT  1  -3.2930821339   0.6898230348   0.0000006174 -- FOR W= 0.138651I A.U.
       0.2675961965       0.0895580672      -0.0000007833      -0.0198763424 >
      -0.0499382276       0.0000011081      -0.0000007285       0.0000008447 >
      -0.0110423672      -0.1734380537       0.5687807812       0.0000018779 >
       0.7753963829      -0.1602774302      -0.0000037221       0.0000018283 >
      -0.0000033264       0.4431498936      -0.0000001632       0.0000013861 >
      -0.1046220997       0.0000014924      -0.0000016288       0.2874669007 >
      -0.1046220997       0.2874669007       0.0000013416
CT  2  -1.9692950337  -0.0276977404   0.0000007971
      -0.6550240750       0.4272703539      -0.0000055756       0.1913710245 >
       0.2588891170      -0.0000004614      -0.0000049894      -0.0000002011 >
       0.3753190991      -0.4179975300       0.0684706219      -0.0000014584 >
       0.0476547629       0.4188542327      -0.0000003673      -0.0000014718 >
      -0.0000003501       0.2350426266      -0.0000032884      -0.0000000321 >
       0.3108954111      -0.0000001756       0.0000009316       0.0701064974 >
       0.3108954111       0.0701064974       0.0000017533
CT  3  -3.0582301381  -0.4510386151  -0.5003666145
       0.2667465611       0.3892356859       0.5279943706       0.3890076072 >
      -0.2949703097       0.2228485268       0.5207958956       0.2102468376 >
       0.0085769977      -0.4062017935       0.1390623460       0.2258142197 >
       0.1386437670       0.3424165476       0.8164098254       0.2127999551 >
       0.7936436274       0.0308776803      -0.6767364458       0.5103641192 >
       0.8867351384       0.5095582316      -0.0161042017       1.6333290342 >
       0.8675069664       1.6001933899       0.7228053207
CT  4  -3.0582312286  -0.4510403315   0.5003652000
       0.2667526804       0.3892430076      -0.5280002226       0.3890149258 >
      -0.2949728268      -0.2228516727      -0.5208016081      -0.2102497413 >
       0.0085731842      -0.4062049295       0.1390664985      -0.2258171480 >
       0.1386479143       0.3424255876      -0.8164177141      -0.2128026748 >
      -0.7936511572       0.0308715162       0.6767294173      -0.5103685059 >
       0.8867346268      -0.5095625792       0.0160930803       1.6333264801 >
       0.8675062487       1.6001905727      -0.7227876690
CT  1  -3.2930821339   0.6898230348   0.0000006174 -- FOR W= 0.233223I A.U.
       0.2570832588       0.0779097584      -0.0000006890      -0.0321025406 >
      -0.0308586350       0.0000009358      -0.0000007001       0.0000007959 >
      -0.0185179487      -0.1469558994       0.5177274638       0.0000015771 >
       0.7254341388      -0.1540258512      -0.0000031718       0.0000016413 >
      -0.0000029892       0.4109940497       0.0000000154       0.0000012893 >
      -0.0999871501       0.0000014071      -0.0000015261       0.2748665500 >
      -0.0999871501       0.2748665500       0.0000013392
CT  2  -1.9692950337  -0.0276977404   0.0000007971
      -0.6179384414       0.3975087037      -0.0000047357       0.1604170615 >
       0.2444733696      -0.0000003978      -0.0000045155      -0.0000001687 >
       0.3525440027      -0.3682720323       0.0586661857      -0.0000012273 >
       0.0377451165       0.3940497512      -0.0000003507      -0.0000012616 >
      -0.0000003352       0.2113139233      -0.0000030157      -0.0000001194 >
       0.2968957551      -0.0000002753       0.0000010287       0.0669867345 >
       0.2968957551       0.0669867345       0.0000017512
CT  3  -3.0582301381  -0.4510386151  -0.5003666145
       0.2506110474       0.3428256876       0.4415810872       0.3426021797 >
      -0.2637594473       0.1876398067       0.4417403557       0.1885291243 >
       0.0131636386      -0.3458815651       0.1119595035       0.1902720135 >
       0.1115493131       0.3115403024       0.6854400024       0.1904960947 >
       0.6869469230       0.0367580566      -0.5957249796       0.4279969759 >
       0.7423112241       0.4274681683      -0.0404271214       1.3681973871 >
       0.7427366532       1.3703906732       0.6344859120
CT  4  -3.0582312286  -0.4510403315   0.5003652000
       0.2506163104       0.3428320653      -0.4415861499       0.3426085584 >
      -0.2637615406      -0.1876424835      -0.4417453685      -0.1885317019 >
       0.0131603344      -0.3458843329       0.1119632117      -0.1902745052 >
       0.1115530234       0.3115481951      -0.6854467580      -0.1904985195 >
      -0.6869535405       0.0367527126       0.5957191622      -0.4280007477 >
       0.7423108835      -0.4274719230       0.0404176486       1.3681953701 >
       0.7427361760       1.3703884379      -0.6344708096
CT  1  -3.2930821339   0.6898230348   0.0000006174 -- FOR W= 0.385897I A.U.
       0.2122689868       0.0539950610      -0.0000005535      -0.0418576881 >
       0.0100040907       0.0000007133      -0.0000006157       0.0000006906 >
      -0.0413000773      -0.1024240519       0.4310766042       0.0000011473 >
       0.6120496044      -0.1463159009      -0.0000023657       0.0000012984 >
      -0.0000023864       0.3445927020       0.0000001790       0.0000010870 >
      -0.0903655986       0.0000011935      -0.0000012879       0.2479176371 >
      -0.0903655986       0.2479176371       0.0000011918
CT  2  -1.9692950337  -0.0276977404   0.0000007971
      -0.5434431083       0.3152368535      -0.0000035316       0.1088052515 >
       0.2155479482      -0.0000003047      -0.0000036426      -0.0000001320 >
       0.3096795462      -0.2818353399       0.0509391876      -0.0000008657 >
       0.0327235736       0.3326182062      -0.0000003055      -0.0000009186 >
      -0.0000002940       0.1556487358      -0.0000024821      -0.0000001941 >
       0.2672383494      -0.0000003335       0.0000010241       0.0601046665 >
       0.2672383494       0.0601046665       0.0000015575
CT  3  -3.0582301381  -0.4510386151  -0.5003666145
       0.2074951211       0.2650038381       0.3053795782       0.2648243076 >
      -0.2129992811       0.1442927587       0.3113036297       0.1556443601 >
       0.0209986801      -0.2614043099       0.0741968819       0.1460109162 >