!  NEO-DFT CALCULATION ON HCN TESTING CALCULATION OF PROTON DENSITY
!
!  POINT      X         Y         Z             DENSITY
!,                    (BOHR)                    (A.U.)
!        1     0.08858   0.00000  -0.60235         0.001398
!        2     0.08858   0.00000  -0.50196         0.023317
!        3     0.08858   0.00000  -0.40157         0.167762
!        4     0.08858   0.00000  -0.30118         0.658110
!        5     0.08858   0.00000  -0.20078         2.515685
!        6     0.08858   0.00000  -0.10039         9.452500
!        7     0.08858   0.00000   0.00000        18.896491
!        8     0.08858   0.00000   0.10039        16.594199
!        9     0.08858   0.00000   0.20078         7.920963
!       10     0.08858   0.00000   0.30118         2.568024
!       11     0.08858   0.00000   0.40157         0.517313
!       12     0.08858   0.00000   0.50196         0.052796
!       13     0.08858   0.00000   0.60235         0.002492
!       14     0.08858   0.00000   0.70274         0.000054
!       15     0.08858   0.00000   0.80313         0.000001
!       16     0.08858   0.00000   0.90353         0.000000
!       17     0.08858   0.00000   1.00392         0.000000
!       18     0.08858   0.00000   1.10431         0.000000
!       19     0.08858   0.00000   1.20470         0.000000
!       20     0.08858   0.00000   1.30509         0.000000
!       21     0.08858   0.00000   1.40548         0.000000
!
 ...... END OF PROPERTY EVALUATION ......
 STEP CPU TIME =     0.00 TOTAL CPU TIME =          8.3 (      0.1 MIN)
 $CONTRL SCFTYP=RHF RUNTYP=ENERGY DFTTYP=B3LYP MAXIT=200
         ICHARG=0 MULT=1 ISPHER=1 $END
 $INTGRL SCHWRZ=.F. $END
 $SCF DIRSCF=.T.    DIIS=.T. CONV=1.0D-06 FDIFF=.F. $END
 $DFT   NRAD=96 NLEB=302 NRAD0=96 NLEB0=302 $END
 $SYSTEM MWORDS=400 $END
 $NEO NEOSCF=RONHF BASNUC=DZSPDN NUNIQN=1
      IUNIQN(1)=3 NUMULT=2 EXCH=.T.
      DIRNUC=.F. NEODFT=CS4
   YANGA=2.35 YANGB=2.4 YANGC=6.6  
   SYMNUC=.TRUE. QMTOLN=1.0D-05 IPRDEN=1 $END
 $BASIS GBASIS=STO NGAUSS=3 $END
 $DATA

 C1
 C           6.0   0.0000000000   0.0000000000  -1.0657899287
 N           7.0   0.0000000000   0.0000000000  -2.2110711294
 H           1.0   0.0000000000   0.0000000000   0.000000000
 $END

 $POINTS
BOHR 21
0.08858 0.00000 -0.60235
0.08858 0.00000 -0.50196
0.08858 0.00000 -0.40157
0.08858 0.00000 -0.30118
0.08858 0.00000 -0.20078
0.08858 0.00000 -0.10039
0.08858 0.00000 0.00000
0.08858 0.00000 0.10039
0.08858 0.00000 0.20078
0.08858 0.00000 0.30118
0.08858 0.00000 0.40157
0.08858 0.00000 0.50196
0.08858 0.00000 0.60235
0.08858 0.00000 0.70274
0.08858 0.00000 0.80313
0.08858 0.00000 0.90353
0.08858 0.00000 1.00392
0.08858 0.00000 1.10431
0.08858 0.00000 1.20470
0.08858 0.00000 1.30509
0.08858 0.00000 1.40548
 $END


!
!TRAVIS-CI SMALL
!

