!    The system here is glycine tetramer capped with methyl and hydrogen,
!    CH3-[NH-CH2-C=O]4-H
!    Dispersion parameters will be generated despite AFO, as instructed by
!    bit "2" at the third position in modefm
!
!    search "TOTAL DISPERSION ENERGY", in the order of serial output:
!    -0.00070
!    -0.00060
!    -0.00054
!
 $contrl nprint=-5 runtyp=energy ispher=1 local=ruednbrg $end
 $system mwords=2 $end
 $scf    dirscf=.t. NPUNCH=0 $end
 $basis gbasis=sto ngauss=3 $end
 $fmo
        nbody=2
        iefmo=1
        modefm(1)=0,0,3,0,0
        resdim=0.1
        nfrag=4
        icharg(1)=0,0,0,0
        frgnam(1)=Hgly01,gly02,gly03,glyCH304
        rafo(1)=1,1,1
        indat(1)=1,1,1,1,1, 1,1,1,1,1, 1,
                 2,2,2,2,2, 2,2,
                 3,3,3,3,3, 3,3,
                 4,4,4,4,4, 4,4,4
 $end
 $fmoprp nprint=1 $end
 $fmoxyz
H 1  0.00000        0.00000        0.00000
C 6  0.00000        1.09000        0.00000
H 1  1.02800        1.45300        0.00000
H 1 -0.51400        1.45300       -0.89000
C 6 -0.72100        1.60000        1.24900
O 8 -0.83900        2.80600        1.45300
N 7 -1.22700        0.72800        2.12500
H 1 -1.12400       -0.26100        1.94700
C 6 -1.91800        1.15900        3.32300
H 1 -2.81100        1.71900        3.04500
H 1 -2.20000        0.28100        3.90300
C 6 -1.01100        2.03900        4.17100
O 8 -1.42500        3.10100        4.63200
N 7  0.23000        1.59400        4.37700
H 1  0.50900        0.71300        3.97100
C 6  1.18900        2.33900        5.16800
H 1  0.82600        2.42800        6.19100
H 1  2.14100        1.80800        5.15900
C 6  1.39600        3.72800        4.58000
O 8  1.37900        4.72100        5.30400
N 7  1.59200        3.79600        3.26100
H 1  1.59400        2.94300        2.72100
C 6  1.80000        5.05900        2.58200
H 1  2.71300        5.52500        2.95400
H 1  1.89100        4.87300        1.51200
C 6  0.62100        5.99100        2.82100
O 8  0.80700        7.16100        3.14700
N 7 -0.59600        5.46800        2.65800
H 1 -0.68200        4.49800        2.38900
C 6 -1.79900        6.25200        2.85600
H 1 -1.52700        7.26900        3.14000
H 1 -2.37400        6.27500        1.93000
H 1 -2.40000        5.80200        3.64600
 $end     
 $FMOBND
  -9 12 
 -16 19 
 -23 26 
 $end
 $data
Basis set input using fake atomic coordinates
c1
h 1
c 6
n 7
o 8
 $end
 
!TRAVIS-CI SKIP
!NAN for GNU 5.5.0 + OpenBLAS + OpenMPI
