 $CONTRL SCFTYP=RHF RUNTYP=ENERGY MAXIT=50 MULT=1 ispher=1 $END
 $contrl nprint=-5 inttyp=best $end
 $guess guess=huckel $end
 $SYSTEM mwords=500 memddi=500 $END
 $BASIS gbasis=pcSeg-0 $END
 $SCF DIRSCF=.TRUE. $END
 $DATA 
gly30
C1
N     7.0     0.00000000     0.00000000     0.00000000
C     6.0     1.44675004     0.00000000     0.00000000
C     6.0     1.96825004     0.00000000     1.43350005
O     8.0     1.23854995     0.00000000     2.42186999
H     1.0     1.79886997    -0.89599001    -0.52237999
H     1.0     1.79972994     0.89301002    -0.52355999
H     1.0    -0.47222999    -0.00252000     0.89964998
H     1.0    -0.50800002     0.07669000    -0.87652999
N     7.0     3.28784990    -0.00000000     1.66638994
C     6.0     3.78245997     0.00022000     3.02596998
C     6.0     5.30786991     0.00017000     3.02596998
O     8.0     5.98721981    -0.00002000     2.00234008
H     1.0     3.41196990     0.89630997     3.53531003
H     1.0     3.41108990    -0.89269000     3.53682995
H     1.0     3.97185993     0.00237000     0.91504002
N     7.0     5.97786999     0.00035000     4.18645000
C     6.0     7.42462015     0.00009000     4.18645000
C     6.0     7.94611979     0.00037000     5.61993980
O     8.0     7.21641016     0.00075000     6.60831022
H     1.0     7.77657986    -0.89609998     3.66429996
H     1.0     7.77776003     0.89289999     3.66265011
H     1.0     5.50563002    -0.00185000     5.08610010
N     7.0     9.26572037     0.00019000     5.85283995
C     6.0     9.76033020     0.00067000     7.21241999
C     6.0    11.28573036     0.00034000     7.21241999
O     8.0    11.96508980    -0.00024000     6.18878984
H     1.0     9.39000034     0.89695001     7.72151995
H     1.0     9.38879013    -0.89204001     7.72350979
H     1.0     9.94972038     0.00224000     5.10149002
N     7.0    11.95573044     0.00070000     8.37289047
C     6.0    13.40248966     0.00018000     8.37289047
C     6.0    13.92397976     0.00073000     9.80638981
O     8.0    13.19427967     0.00151000    10.79475975
H     1.0    13.75428009    -0.89621001     7.85097980
H     1.0    13.75578976     0.89279002     7.84886980
H     1.0    11.48349953    -0.00118000     9.27254963
O     8.0    15.26646042     0.00032000     9.95788002
H     1.0    15.89842987    -0.00035000     9.10188961
 $end
