 $contrl scftyp=rhf  runtyp=energy icharg=0 ispher=1 maxit=30 $end
 $contrl nprint=-5 $end
 $system mwords=300 memddi=300 $end
 $basis  gbasis=pcSeg-0 $end
 $scf    dirscf=.true. $end
 $data
cyclic AMP...PM3 geometry...PM3 E= -148.9399327109, R M S= 0.0000063
C1
OXYGEN  8.0   -4.3996600    1.0763700    7.7009100
  HYDROGEN  1.0   -3.9596600    0.2663700    7.3109100
  HYDROGEN  1.0   -4.4296600    0.9963700    8.7009100
  OXYGEN  8.0   -6.2496600    3.4563700    1.8409100
  HYDROGEN  1.0   -6.8696600    3.8863700    1.1809100
  HYDROGEN  1.0   -5.3896600    3.9663700    1.8709100
  OXYGEN  8.0   -1.7196600    3.2263700    6.2709100
  HYDROGEN  1.0   -1.3296600    2.5663700    5.6309100
  HYDROGEN  1.0   -2.0796600    4.0063700    5.7709100
  OXYGEN  8.0  -17.8096600    2.7463700    6.2009100
  HYDROGEN  1.0  -18.6296600    2.3363700    5.7909100
  HYDROGEN  1.0  -18.0696600    3.2963700    6.9909100
  OXYGEN  8.0    1.2103400    5.6563700   -1.3290900
  HYDROGEN  1.0    1.9103400    6.1963700   -1.7890900
  HYDROGEN  1.0    1.6303400    4.9263700   -0.7990900
  OXYGEN  8.0  -14.9396600   -1.9436300   -5.4990900
  HYDROGEN  1.0  -14.7196600   -2.8136300   -5.0490900
  HYDROGEN  1.0  -14.4896600   -1.1936300   -5.0090900
  OXYGEN  8.0   -5.3996600    9.8463700   -2.7090900
  HYDROGEN  1.0   -5.6996600   10.6463700   -3.2190900
  HYDROGEN  1.0   -5.8396600    9.8363700   -1.8090900
  OXYGEN  8.0   -6.3496600    5.5263700   -6.1090900
  HYDROGEN  1.0   -5.8296600    5.9863700   -5.3890900
  HYDROGEN  1.0   -7.2296600    5.2263700   -5.7390900
  OXYGEN  8.0    3.9303400  -10.7036300    6.0909100
  HYDROGEN  1.0    3.9803400  -11.6936300    5.9509100
  HYDROGEN  1.0    2.9703400  -10.4136300    6.0409100
  OXYGEN  8.0  -12.6896600    2.4063700    7.3009100
  HYDROGEN  1.0  -12.9296600    1.4663700    7.0509100
  HYDROGEN  1.0  -13.3596600    3.0363700    6.9109100
  OXYGEN  8.0   -3.0596600   -0.6236300  -13.9090900
  HYDROGEN  1.0   -3.0896600    0.3163700  -13.5590900
  HYDROGEN  1.0   -2.1296600   -0.9736300  -13.8390900
  OXYGEN  8.0    3.4003400   -5.5436300   -9.3390900
  HYDROGEN  1.0    3.5103400   -6.4936300   -9.6390900
  HYDROGEN  1.0    2.4803400   -5.2236300   -9.5690900
  OXYGEN  8.0    0.7003400   -4.9236300    9.5209100
  HYDROGEN  1.0    0.5203400   -4.2236300   10.2209100
  HYDROGEN  1.0    0.0003400   -5.6236300    9.5709100
  OXYGEN  8.0    9.9703400  -11.3236300   -2.6490900
  HYDROGEN  1.0   10.9303400  -11.3836300   -2.9290900
  HYDROGEN  1.0    9.4503400  -12.0436300   -3.1090900
  OXYGEN  8.0   -5.1396600   -6.6836300    0.3509100
  HYDROGEN  1.0   -5.4796600   -6.6136300    1.2909100
  HYDROGEN  1.0   -5.5996600   -6.0236300   -0.2290900
  OXYGEN  8.0   -1.5196600   -3.9536300   -4.9790900
  HYDROGEN  1.0   -2.4896600   -4.1636300   -4.9390900
  HYDROGEN  1.0   -1.0196600   -4.5436300   -4.3390900
  OXYGEN  8.0   -0.4696600   20.4663700    1.7309100
  HYDROGEN  1.0    0.4403400   20.0463700    1.7409100
  HYDROGEN  1.0   -1.0296600   20.0663700    2.4609100
  OXYGEN  8.0   10.3303400    7.3063700    1.4709100
  HYDROGEN  1.0   11.0103400    6.5963700    1.2509100
  HYDROGEN  1.0   10.6503400    7.8463700    2.2509100
  OXYGEN  8.0    3.4903400   -5.2836300    3.6309100
  HYDROGEN  1.0    3.3103400   -4.3036300    3.7009100
  HYDROGEN  1.0    3.8903400   -5.6136300    4.4809100
OXYGEN  8.0    4.9303400    7.9663700  -10.8090900
  HYDROGEN  1.0    4.1003400    7.5563700  -11.1990900
  HYDROGEN  1.0    5.3503400    8.5663700  -11.4990900
  OXYGEN  8.0    1.5603400   12.7863700    4.2909100
  HYDROGEN  1.0    1.8003400   12.9763700    5.2409100
  HYDROGEN  1.0    0.5903400   12.5763700    4.2309100
  OXYGEN  8.0   -0.7496600   -9.9036300    1.7509100
  HYDROGEN  1.0   -0.4996600  -10.0936300    0.8009100
  HYDROGEN  1.0   -1.7096600  -10.1636300    1.9009100
  OXYGEN  8.0   12.8603400   -7.0936300   -5.5090900
  HYDROGEN  1.0   12.3303400   -6.2436300   -5.5590900
  HYDROGEN  1.0   12.5503400   -7.7136300   -6.2290900
  OXYGEN  8.0   -0.2496600   -8.8436300    6.7809100
  HYDROGEN  1.0   -0.9396600   -9.1536300    7.4209100
  HYDROGEN  1.0   -0.6896600   -8.4036300    6.0009100
  OXYGEN  8.0    0.7903400  -10.0336300   -6.9490900
  HYDROGEN  1.0    0.5103400  -10.9336300   -7.2890900
  HYDROGEN  1.0    0.2103400   -9.7836300   -6.1690900
  OXYGEN  8.0    9.0703400   -9.2336300    0.4809100
  HYDROGEN  1.0    9.1503400  -10.1736300    0.8209100
  HYDROGEN  1.0    9.8903400   -8.7136300    0.7309100
  OXYGEN  8.0    9.0403400    4.9263700    3.2409100
  HYDROGEN  1.0    8.0803400    5.1163700    3.4709100
  HYDROGEN  1.0    9.3403400    5.5663700    2.5309100
  OXYGEN  8.0  -12.9896600   -0.7636300   10.8209100
  HYDROGEN  1.0  -12.0896600   -0.5336300   10.4609100
  HYDROGEN  1.0  -13.3496600    0.0063700   11.3509100
  OXYGEN  8.0   -0.9296600   -0.7436300    2.7809100
  HYDROGEN  1.0   -1.9096600   -0.6436300    2.6009100
  HYDROGEN  1.0   -0.6296600   -1.6636300    2.5409100
  OXYGEN  8.0   -0.4596600   -5.7136300   -3.4990900
  HYDROGEN  1.0   -0.2196600   -5.4636300   -2.5690900
  HYDROGEN  1.0   -1.1596600   -6.4236300   -3.4890900
  OXYGEN  8.0   -1.5296600   11.4863700   -3.2290900
  HYDROGEN  1.0   -1.7096600   11.5663700   -4.2090900
  HYDROGEN  1.0   -0.5496600   11.3563700   -3.0790900
  OXYGEN  8.0   -2.2796600   -9.6236300    8.5209100
  HYDROGEN  1.0   -2.7196600   -8.8236300    8.1109100
  HYDROGEN  1.0   -2.0096600   -9.4036300    9.4609100
  OXYGEN  8.0   -4.0096600   -7.5636300  -16.0690900
  HYDROGEN  1.0   -4.6896600   -7.5036300  -16.7990900
  HYDROGEN  1.0   -3.2496600   -6.9536300  -16.2790900
  OXYGEN  8.0   11.1303400   -4.7036300   -2.9390900
  HYDROGEN  1.0   11.1703400   -5.6036300   -2.5090900
  HYDROGEN  1.0   11.5203400   -4.7536300   -3.8590900
  OXYGEN  8.0    8.3003400   -0.5336300   13.9109100
  HYDROGEN  1.0    9.1803400   -0.1236300   14.1709100
  HYDROGEN  1.0    7.9903400   -0.1436300   13.0509100
  OXYGEN  8.0   -6.7096600    2.4363700    7.7909100
  HYDROGEN  1.0   -5.7796600    2.1163700    7.5909100
  HYDROGEN  1.0   -6.8796600    3.2963700    7.3109100
  OXYGEN  8.0   11.2503400   -7.8236300    0.9909100
  HYDROGEN  1.0   11.7903400   -7.0736300    1.3909100
  HYDROGEN  1.0   11.6803400   -8.1236300    0.1409100
  OXYGEN  8.0  -14.2496600   -0.4336300    6.0709100
  HYDROGEN  1.0  -14.4196600   -1.1936300    6.7009100
  HYDROGEN  1.0  -13.8196600   -0.7836300    5.2409100
 OXYGEN  8.0    7.8503400   -2.0236300   -8.1590900
  HYDROGEN  1.0    8.2203400   -1.3336300   -8.7790900
  HYDROGEN  1.0    6.8703400   -1.8836300   -8.0490900
  OXYGEN  8.0   17.4603400   -7.3836300    2.1609100
  HYDROGEN  1.0   17.6703400   -7.2036300    1.2009100
  HYDROGEN  1.0   18.2203400   -7.0636300    2.7309100
  OXYGEN  8.0    0.7703400    0.1963700  -12.1290900
  HYDROGEN  1.0    1.3103400   -0.5136300  -12.5890900
  HYDROGEN  1.0    1.3903400    0.7763700  -11.5990900
  OXYGEN  8.0    3.7903400   11.5963700   -2.2590900
  HYDROGEN  1.0    4.7503400   11.6863700   -2.0090900
  HYDROGEN  1.0    3.6603400   10.7263700   -2.7490900
  OXYGEN  8.0    2.5703400   -4.8436300   -3.7390900
  HYDROGEN  1.0    2.0403400   -5.6336300   -4.0590900
  HYDROGEN  1.0    2.0503400   -4.3636300   -3.0390900
  OXYGEN  8.0   -6.8996600   -6.4736300   -5.9190900
  HYDROGEN  1.0   -7.5696600   -5.9136300   -6.4190900
  HYDROGEN  1.0   -6.7196600   -6.0536300   -5.0290900
  OXYGEN  8.0   -9.1096600   -0.9436300  -10.3590900
  HYDROGEN  1.0   -8.7096600   -0.3136300  -11.0390900
  HYDROGEN  1.0   -9.9596600   -0.5536300  -10.0090900
  OXYGEN  8.0    8.6803400    3.3763700    7.6509100
  HYDROGEN  1.0    8.4103400    2.6863700    6.9809100
  HYDROGEN  1.0    9.5203400    3.0863700    8.1109100
  OXYGEN  8.0   11.1303400    9.0463700    3.8509100
  HYDROGEN  1.0   10.2203400    9.0563700    3.4409100
  HYDROGEN  1.0   11.0503400    9.1563700    4.8409100
  OXYGEN  8.0    3.4503400   -0.2936300  -14.4490900
  HYDROGEN  1.0    2.8403400   -1.0936300  -14.4190900
  HYDROGEN  1.0    4.0703400   -0.3336300  -13.6690900
  OXYGEN  8.0  -20.2396600    0.8563700    2.7309100
  HYDROGEN  1.0  -19.7396600    0.9263700    1.8709100
  HYDROGEN  1.0  -20.9096600    0.1163700    2.6609100
  OXYGEN  8.0   -0.1196600   -1.6336300  -14.3290900
  HYDROGEN  1.0   -0.2696600   -2.5336300  -14.7390900
  HYDROGEN  1.0    0.7703400   -1.6136300  -13.8590900
  OXYGEN  8.0   -9.8996600   -8.7436300   -8.1890900
  HYDROGEN  1.0   -9.9496600   -9.6036300   -8.7090900
  HYDROGEN  1.0   -8.9896600   -8.3336300   -8.3190900
  OXYGEN  8.0   -2.7596600   -2.8036300    7.7509100
  HYDROGEN  1.0   -2.1996600   -2.5436300    6.9709100
  HYDROGEN  1.0   -3.4696600   -3.4536300    7.4609100
  OXYGEN  8.0    0.2903400   -2.5436300   11.2509100
  HYDROGEN  1.0   -0.6896600   -2.6936300   11.3009100
  HYDROGEN  1.0    0.4903400   -1.8136300   10.6009100
  OXYGEN  8.0   -1.3096600    6.3763700    7.7009100
  HYDROGEN  1.0   -0.9796600    7.1963700    8.1809100
  HYDROGEN  1.0   -1.4096600    5.6263700    8.3509100
  OXYGEN  8.0   10.0103400    1.4363700   -8.0390900
  HYDROGEN  1.0    9.7103400    1.2363700   -7.1090900
  HYDROGEN  1.0   10.5303400    2.2863700   -8.0490900
  OXYGEN  8.0   -0.3196600   -2.8336300   16.7109100
  HYDROGEN  1.0    0.6503400   -2.7236300   16.4809100
  HYDROGEN  1.0   -0.4096600   -3.5336300   17.4209100
  OXYGEN  8.0   -3.2696600   -3.1136300  -16.2590900
  HYDROGEN  1.0   -3.8396600   -3.4036300  -15.4890900
  HYDROGEN  1.0   -3.2396600   -2.1136300  -16.2990900
  OXYGEN  8.0    7.7003400   -3.4536300   -3.0990900
  HYDROGEN  1.0    8.2703400   -3.7936300   -2.3490900
  HYDROGEN  1.0    6.9003400   -4.0336300   -3.1990900
  OXYGEN  8.0    5.4903400    1.0063700   10.3309100
  HYDROGEN  1.0    4.7603400    0.9063700   11.0009100
  HYDROGEN  1.0    6.3303400    0.6063700   10.7009100
  OXYGEN  8.0    5.9703400    5.9863700    0.8309100
  HYDROGEN  1.0    6.9003400    5.7263700    0.5809100
  HYDROGEN  1.0    5.9603400    6.9463700    1.1109100
  OXYGEN  8.0    0.3403400    9.9463700   -9.9090900
  HYDROGEN  1.0    1.2703400   10.3063700   -9.9690900
  HYDROGEN  1.0    0.1203400    9.4663700  -10.7590900
  OXYGEN  8.0   -0.2096600    4.1263700   13.0209100
  HYDROGEN  1.0    0.6003400    3.5363700   13.0309100
  HYDROGEN  1.0    0.0703400    5.0863700   13.0509100
  OXYGEN  8.0    9.8703400   -2.4636300   12.0009100
  HYDROGEN  1.0   10.3003400   -2.4036300   11.1009100
  HYDROGEN  1.0    9.9403400   -1.5736300   12.4609100
  OXYGEN  8.0   -5.0796600  -12.4936300    4.4209100
  HYDROGEN  1.0   -5.4496600  -12.9836300    5.2109100
  HYDROGEN  1.0   -5.8096600  -11.9736300    3.9709100
  OXYGEN  8.0  -12.8396600   -0.0536300    3.4209100
  HYDROGEN  1.0  -12.3796600    0.1363700    4.2809100
  HYDROGEN  1.0  -13.2496600    0.7863700    3.0709100
  OXYGEN  8.0   -6.5996600   -8.2136300   -8.1690900
  HYDROGEN  1.0   -5.6796600   -8.6136300   -8.1390900
  HYDROGEN  1.0   -6.9296600   -8.0836300   -7.2390900
  OXYGEN  8.0    7.6503400   -6.6236300    8.1009100
  HYDROGEN  1.0    7.7803400   -7.2236300    8.8909100
  HYDROGEN  1.0    6.8603400   -6.0336300    8.2609100
  OXYGEN  8.0   -1.5696600   -6.2436300   10.2009100
  HYDROGEN  1.0   -2.0096600   -6.8536300   10.8609100
  HYDROGEN  1.0   -2.2696600   -5.7736300    9.6609100
  OXYGEN  8.0    4.7403400  -14.1436300    0.2609100
  HYDROGEN  1.0    3.9903400  -14.7436300    0.5509100
  HYDROGEN  1.0    5.1603400  -13.7336300    1.0709100
  OXYGEN  8.0    0.5503400  -13.1336300   -4.3290900
  HYDROGEN  1.0    0.1003400  -14.0136300   -4.1790900
  HYDROGEN  1.0    0.0103400  -12.5836300   -4.9690900
  OXYGEN  8.0   -0.0596600    6.5063700  -13.5790900
  HYDROGEN  1.0   -0.1096600    7.0063700  -14.4490900
  HYDROGEN  1.0   -0.7996600    5.8363700  -13.5390900
  OXYGEN  8.0    3.0503400  -12.8136300    3.1909100
  HYDROGEN  1.0    2.1103400  -12.4836300    3.2009100
  HYDROGEN  1.0    3.6503400  -12.1336300    3.6109100
  OXYGEN  8.0    0.3803400   -3.0436300    2.5109100
  HYDROGEN  1.0    0.8003400   -2.5536300    3.2709100
  HYDROGEN  1.0    1.0703400   -3.2336300    1.8109100
  OXYGEN  8.0    3.9203400    4.2963700  -16.3990900
  HYDROGEN  1.0    4.3903400    3.4963700  -16.7690900
  HYDROGEN  1.0    3.0903400    3.9963700  -15.9190900
  OXYGEN  8.0   -4.2496600    8.5563700   10.1709100
  HYDROGEN  1.0   -4.2296600    9.3663700   10.7509100
  HYDROGEN  1.0   -5.1796600    8.4263700    9.8109100
  OXYGEN  8.0   -7.5596600   -7.5136300   11.2209100
  HYDROGEN  1.0   -6.7096600   -7.9336300   10.9009100
  HYDROGEN  1.0   -7.4596600   -6.5236300   11.2209100
    OXYGEN  8.0   13.4403400    3.6563700   -4.0690900
  HYDROGEN  1.0   13.5703400    4.6463700   -3.9690900
  HYDROGEN  1.0   14.2403400    3.2663700   -4.5190900
  OXYGEN  8.0   -6.7996600   10.8663700    7.3609100
  HYDROGEN  1.0   -6.1896600   10.0763700    7.3809100
  HYDROGEN  1.0   -7.7096600   10.5963700    7.6709100
  OXYGEN  8.0    3.4003400    9.4263700   -8.8590900
  HYDROGEN  1.0    3.0403400    8.8263700   -8.1390900
  HYDROGEN  1.0    4.2203400    9.0163700   -9.2590900
  OXYGEN  8.0   -2.4096600    8.8063700   -2.3290900
  HYDROGEN  1.0   -3.3096600    9.2263700   -2.2890900
  HYDROGEN  1.0   -1.7996600    9.3863700   -2.8690900
  OXYGEN  8.0  -11.5796600   -5.7036300    7.5009100
  HYDROGEN  1.0  -11.2596600   -4.7936300    7.2209100
  HYDROGEN  1.0  -10.8896600   -6.1236300    8.0809100
  OXYGEN  8.0   -2.8596600   -0.8336300   13.1709100
  HYDROGEN  1.0   -3.7696600   -0.4336300   13.2709100
  HYDROGEN  1.0   -2.6696600   -0.9736300   12.2009100
  OXYGEN  8.0    3.0103400    8.2263700    2.2909100
  HYDROGEN  1.0    3.9103400    8.1563700    1.8709100
  HYDROGEN  1.0    2.5803400    9.0863700    2.0109100
  OXYGEN  8.0   -4.0896600   -3.4636300    1.6509100
  HYDROGEN  1.0   -4.3796600   -4.4036300    1.4609100
  HYDROGEN  1.0   -3.5396600   -3.4536300    2.4909100
  OXYGEN  8.0   -2.7096600    3.2163700   -2.7390900
  HYDROGEN  1.0   -3.2596600    4.0363700   -2.5590900
  HYDROGEN  1.0   -1.7496600    3.4763700   -2.8390900
  OXYGEN  8.0    1.1403400   11.6963700   -2.9990900
  HYDROGEN  1.0    0.7303400   12.1863700   -2.2290900
  HYDROGEN  1.0    2.1403400   11.6963700   -2.8890900
  OXYGEN  8.0   -1.4896600    1.7863700   10.1109100
  HYDROGEN  1.0   -2.2696600    1.1563700   10.1209100
  HYDROGEN  1.0   -0.9896600    1.7063700   10.9709100
  OXYGEN  8.0    0.9803400    2.3363700   -8.7990900
  HYDROGEN  1.0    0.4903400    3.1763700   -9.0490900
  HYDROGEN  1.0    0.4703400    1.5463700   -9.1290900
  OXYGEN  8.0   -8.5696600   -0.2836300   -4.2090900
  HYDROGEN  1.0   -8.0796600    0.5263700   -4.5390900
  HYDROGEN  1.0   -9.5296600   -0.2236300   -4.4890900
  OXYGEN  8.0   -0.4296600   -5.2736300   -0.7890900
  HYDROGEN  1.0   -0.3396600   -4.3236300   -1.0890900
  HYDROGEN  1.0   -1.2996600   -5.3936300   -0.3190900
  OXYGEN  8.0   -4.5696600   -2.0636300  -10.7790900
  HYDROGEN  1.0   -4.2696600   -1.3336300  -10.1590900
  HYDROGEN  1.0   -3.7796600   -2.6336300  -11.0090900
  OXYGEN  8.0    9.5503400    4.6663700   -5.0790900
  HYDROGEN  1.0    8.5603400    4.5563700   -5.1990900
  HYDROGEN  1.0    9.9803400    3.7663700   -5.0390900
  OXYGEN  8.0    2.2603400   -6.6136300   10.9509100
  HYDROGEN  1.0    1.7203400   -5.8736300   10.5409100
  HYDROGEN  1.0    2.3103400   -7.3836300   10.3209100
  OXYGEN  8.0    9.2303400   -5.2136300   10.9509100
  HYDROGEN  1.0    9.5103400   -4.4336300   11.5109100
  HYDROGEN  1.0    8.3903400   -5.6136300   11.3309100
  OXYGEN  8.0    4.1703400    1.0163700    5.9209100
  HYDROGEN  1.0    4.5403400    0.7663700    5.0309100
  HYDROGEN  1.0    4.1403400    2.0063700    6.0009100
   OXYGEN  8.0    7.0703400   -6.0936300   -6.8690900
  HYDROGEN  1.0    6.1203400   -5.9136300   -6.6090900
  HYDROGEN  1.0    7.2603400   -5.6836300   -7.7690900
  OXYGEN  8.0   -4.1296600    3.9563700    9.0509100
  HYDROGEN  1.0   -3.7996600    3.3663700    8.3209100
  HYDROGEN  1.0   -3.3596600    4.3263700    9.5609100
  OXYGEN  8.0   -5.0296600   -3.3736300   -5.1990900
  HYDROGEN  1.0   -4.6996600   -4.0736300   -5.8390900
  HYDROGEN  1.0   -5.9596600   -3.1236300   -5.4390900
  OXYGEN  8.0   -1.9496600   -5.8236300  -16.6590900
  HYDROGEN  1.0   -2.5396600   -5.0236300  -16.7790900
  HYDROGEN  1.0   -1.0496600   -5.6336300  -17.0590900
  OXYGEN  8.0    6.7803400   -9.6336300   -8.4190900
  HYDROGEN  1.0    7.6803400  -10.0436300   -8.3090900
  HYDROGEN  1.0    6.4403400   -9.3236300   -7.5290900
  OXYGEN  8.0  -13.3696600   -5.0836300    5.6109100
  HYDROGEN  1.0  -13.1096600   -5.4936300    4.7409100
  HYDROGEN  1.0  -12.8496600   -5.5036300    6.3509100
  OXYGEN  8.0   -2.2096600    9.4463700    6.4109100
  HYDROGEN  1.0   -1.6096600    8.7763700    5.9809100
  HYDROGEN  1.0   -1.7696600    9.8063700    7.2409100
  OXYGEN  8.0    1.7103400   -7.9236300    8.5309100
  HYDROGEN  1.0    1.1003400   -8.0436300    7.7509100
  HYDROGEN  1.0    2.5503400   -7.4636300    8.2409100
  OXYGEN  8.0   12.9403400   -7.3636300   -1.8990900
  HYDROGEN  1.0   13.6303400   -7.1336300   -2.5790900
  HYDROGEN  1.0   12.2103400   -7.8836300   -2.3390900
  OXYGEN  8.0    7.0303400    8.9763700   -1.3690900
  HYDROGEN  1.0    7.7403400    8.3063700   -1.1590900
  HYDROGEN  1.0    6.7503400    8.8763700   -2.3190900
  OXYGEN  8.0   -6.2796600    5.3063700  -10.2290900
  HYDROGEN  1.0   -6.8896600    4.6563700   -9.7690900
  HYDROGEN  1.0   -6.0096600    6.0163700   -9.5790900
  OXYGEN  8.0  -14.5396600    0.3563700    0.1909100
  HYDROGEN  1.0  -13.8196600    0.7763700   -0.3590900
  HYDROGEN  1.0  -14.5896600    0.8163700    1.0809100
  OXYGEN  8.0    1.2703400    3.3663700    2.9209100
  HYDROGEN  1.0    1.0403400    3.9363700    2.1309100
  HYDROGEN  1.0    0.4703400    2.8463700    3.2109100
  OXYGEN  8.0   -0.0596600    2.4463700   -5.5890900
  HYDROGEN  1.0    0.0803400    2.0263700   -4.6890900
  HYDROGEN  1.0    0.7703400    2.9263700   -5.8690900
  OXYGEN  8.0  -11.4196600   -2.8536300    5.4209100
  HYDROGEN  1.0  -12.1396600   -3.3936300    4.9809100
  HYDROGEN  1.0  -11.6996600   -2.6236300    6.3509100
  OXYGEN  8.0    5.6703400   -0.5036300  -11.5090900
  HYDROGEN  1.0    6.6303400   -0.4736300  -11.7990900
  HYDROGEN  1.0    5.6203400   -0.4036300  -10.5190900
  OXYGEN  8.0   -8.8696600    7.2663700    7.6009100
  HYDROGEN  1.0   -9.4696600    6.4763700    7.5709100
  HYDROGEN  1.0   -8.6296600    7.5463700    6.6709100
  OXYGEN  8.0   12.0403400   -0.7736300    0.2709100
  HYDROGEN  1.0   11.5803400   -1.6436300    0.0909100
  HYDROGEN  1.0   13.0003400   -0.9436300    0.4809100
  OXYGEN  8.0   -9.1296600   -6.4136300    8.5809100
  HYDROGEN  1.0   -9.1196600   -5.7436300    9.3309100
  HYDROGEN  1.0   -8.3296600   -7.0036300    8.6409100
   OXYGEN  8.0    1.7103400   10.3763700    1.8909100
  HYDROGEN  1.0    1.5103400   11.2163700    2.3809100
  HYDROGEN  1.0    1.3803400   10.4563700    0.9409100
  OXYGEN  8.0   -7.7496600   -3.1036300   -5.7990900
  HYDROGEN  1.0   -8.4296600   -3.5036300   -5.1790900
  HYDROGEN  1.0   -7.7796600   -2.1036300   -5.7290900
  OXYGEN  8.0   -5.6596600   -1.7136300    6.5309100
  HYDROGEN  1.0   -6.4396600   -1.1336300    6.7809100
  HYDROGEN  1.0   -5.4596600   -1.5936300    5.5609100
  OXYGEN  8.0    6.0503400   12.3863700    1.6309100
  HYDROGEN  1.0    6.0003400   12.5063700    0.6409100
  HYDROGEN  1.0    5.4003400   13.0063700    2.0809100
  OXYGEN  8.0   -9.6196600   -7.3236300    0.4609100
  HYDROGEN  1.0  -10.4496600   -6.8836300    0.7909100
  HYDROGEN  1.0   -8.8196600   -6.8836300    0.8809100
  OXYGEN  8.0   -0.5996600    5.4863700    3.1109100
  HYDROGEN  1.0    0.3703400    5.6663700    3.2309100
  HYDROGEN  1.0   -0.8396600    5.5363700    2.1409100
  OXYGEN  8.0   -6.6496600   -4.3736300    4.1209100
  HYDROGEN  1.0   -6.0996600   -4.3536300    4.9509100
  HYDROGEN  1.0   -6.7996600   -3.4336300    3.8009100
  OXYGEN  8.0    8.7003400    6.7663700   -0.9290900
  HYDROGEN  1.0    9.2603400    6.8463700   -0.1090900
  HYDROGEN  1.0    9.2903400    6.7863700   -1.7390900
  OXYGEN  8.0   -9.0596600   -5.8136300    3.2309100
  HYDROGEN  1.0   -9.0596600   -6.4236300    4.0309100
  HYDROGEN  1.0   -8.2296600   -5.2436300    3.2509100
  OXYGEN  8.0    2.9503400   -1.6036300  -10.7290900
  HYDROGEN  1.0    2.8103400   -1.6536300   -9.7490900
  HYDROGEN  1.0    3.7903400   -1.1036300  -10.9290900
  OXYGEN  8.0    0.4203400  -11.7336300    3.2309100
  HYDROGEN  1.0    0.0303400  -10.9636300    2.7309100
  HYDROGEN  1.0   -0.1896600  -12.5236300    3.1709100
  OXYGEN  8.0   -1.7496600   17.9963700   -4.2690900
  HYDROGEN  1.0   -2.6496600   17.5663700   -4.4090900
  HYDROGEN  1.0   -1.7796600   18.9363700   -4.6090900
  OXYGEN  8.0    0.6603400    0.2663700   11.8609100
  HYDROGEN  1.0    1.3703400    0.8363700   12.2909100
  HYDROGEN  1.0    0.2203400   -0.2936300   12.5509100
  OXYGEN  8.0    4.3103400    7.3163700   -7.1790900
  HYDROGEN  1.0    4.1703400    6.3763700   -6.8690900
  HYDROGEN  1.0    5.2403400    7.6163700   -6.9390900
  OXYGEN  8.0   -8.8196600   -1.6036300    0.5509100
  HYDROGEN  1.0   -9.2096600   -0.6836300    0.4309100
  HYDROGEN  1.0   -8.4396600   -1.9136300   -0.3090900
  OXYGEN  8.0    1.4403400   -8.1136300   -9.0690900
  HYDROGEN  1.0    2.3503400   -8.3136300   -9.4490900
  HYDROGEN  1.0    1.0903400   -8.9336300   -8.6090900
  OXYGEN  8.0   -3.7796600   -5.1936300   -3.6890900
  HYDROGEN  1.0   -4.4096600   -4.5536300   -4.1190900
  HYDROGEN  1.0   -3.5896600   -4.8936300   -2.7590900
  OXYGEN  8.0   -8.6996600    4.5363700   -4.8290900
  HYDROGEN  1.0   -9.2796600    3.7763700   -4.5490900
  HYDROGEN  1.0   -8.9296600    5.3463700   -4.2990900
  OXYGEN  8.0   -1.0096600   11.5463700    3.6209100
  HYDROGEN  1.0   -1.5296600   11.9863700    4.3609100
  HYDROGEN  1.0   -0.6296600   10.6863700    3.9509100
   OXYGEN  8.0   13.4603400    1.5163700    0.2009100
  HYDROGEN  1.0   12.8203400    0.7863700   -0.0290900
  HYDROGEN  1.0   13.5703400    1.5563700    1.2009100
  OXYGEN  8.0    7.2703400   -7.7636300    2.9309100
  HYDROGEN  1.0    7.4503400   -8.4836300    2.2709100
  HYDROGEN  1.0    6.7003400   -8.1236300    3.6709100
  OXYGEN  8.0   -6.7896600   -0.1736300   -8.6690900
  HYDROGEN  1.0   -7.0496600   -1.1236300   -8.8790900
  HYDROGEN  1.0   -5.8796600    0.0063700   -9.0390900
  OXYGEN  8.0    0.3903400   12.0363700    7.4009100
  HYDROGEN  1.0   -0.0696600   11.9563700    8.2909100
  HYDROGEN  1.0    1.3103400   11.6663700    7.4709100
  OXYGEN  8.0  -10.2396600   -8.6836300   -5.5290900
  HYDROGEN  1.0   -9.8296600   -9.5636300   -5.2890900
  HYDROGEN  1.0  -10.2396600   -8.5736300   -6.5190900
  OXYGEN  8.0   12.9203400    1.1863700    6.3309100
  HYDROGEN  1.0   13.7403400    0.6163700    6.3409100
  HYDROGEN  1.0   13.0703400    1.9763700    5.7409100
  OXYGEN  8.0    0.4403400   -5.9736300  -10.6190900
  HYDROGEN  1.0    1.0203400   -6.7236300  -10.2890900
  HYDROGEN  1.0   -0.4996600   -6.1236300  -10.3190900
  OXYGEN  8.0   -4.0096600    0.4663700   -9.2290900
  HYDROGEN  1.0   -3.8096600    1.4463700   -9.1990900
  HYDROGEN  1.0   -3.2596600   -0.0336300   -8.7890900
  OXYGEN  8.0   -9.9696600   -9.6436300   -1.0690900
  HYDROGEN  1.0  -10.0096600   -8.7736300   -0.5790900
  HYDROGEN  1.0  -10.8896600   -9.9936300   -1.1990900
  OXYGEN  8.0   -2.4096600   10.4063700  -13.3890900
  HYDROGEN  1.0   -2.5096600   10.0963700  -14.3390900
  HYDROGEN  1.0   -1.7796600    9.7963700  -12.9090900
  OXYGEN  8.0    7.5603400   11.8163700    3.9509100
  HYDROGEN  1.0    7.6703400   12.5663700    4.6009100
  HYDROGEN  1.0    7.0603400   12.1463700    3.1509100
  OXYGEN  8.0    2.9703400   12.1063700  -10.1190900
  HYDROGEN  1.0    2.4503400   12.8963700   -9.7790900
  HYDROGEN  1.0    3.3303400   11.5863700   -9.3390900
  OXYGEN  8.0    8.0203400  -12.1036300   -6.5290900
  HYDROGEN  1.0    7.6303400  -12.0136300   -5.6090900
  HYDROGEN  1.0    8.1703400  -13.0636300   -6.7290900
  OXYGEN  8.0    3.1903400    9.0563700   -3.4090900
  HYDROGEN  1.0    4.1003400    8.9163700   -3.7990900
  HYDROGEN  1.0    2.5003400    8.7263700   -4.0490900
  OXYGEN  8.0    7.3103400  -12.4236300   -3.5890900
  HYDROGEN  1.0    6.5903400  -11.7636300   -3.4090900
  HYDROGEN  1.0    6.9603400  -13.3536300   -3.4290900
  OXYGEN  8.0  -11.0696600    3.1363700    9.8309100
  HYDROGEN  1.0  -11.7696600    2.6863700    9.2809100
  HYDROGEN  1.0  -10.7296600    3.9463700    9.3509100
  OXYGEN  8.0    4.0703400   -0.0936300   12.4509100
  HYDROGEN  1.0    3.9103400    0.2063700   13.3909100
  HYDROGEN  1.0    3.6903400   -1.0036300   12.3109100
$end
