! Bu states of 1,3-butadiene with SF-ORMAS
! 
! FINAL ROHF ENERGY IS     -154.8532079450 AFTER  12 ITERATIONS
! 37 Davidson iterations to find three roots
!
! Singlet BU states found:
! STATE   2  ENERGY=      -154.7763276546  S=  0.00  SZ=  0.00  SPACE SYM=BU
! STATE   5  ENERGY=      -154.6954941581  S=  0.00  SZ=  0.00  SPACE SYM=BU
!
 $CONTRL SCFTYP=ROHF RUNTYP=energy
  mult=3 cityp=sform $END
 $SYSTEM mwords=300 memddi=200  $END
 $BASIS GBASIS=n311 ngauss=6 ndfunc=1
  npfunc=1 diffsp=.t. diffs=.t. $END
 $SCF DIRSCF=.TRUE. $END
 $cidet nstate=5
  stsym=bu ncore=0 nact=134 nels=30
  mulsf=1 
 $end
 $ormas
  nspace=3 mstart(1)=1,15,17 mine(1)=27,1,0 maxe(1)=28,3,1
 $end
 $DATA
1,3, butadiene
CNH 2

 C           6.0  -0.6070426591   0.4048734615  -0.0000000000
 C           6.0  -1.8486824331  -0.1152587827  -0.0000000000
 H           1.0   2.7277329299  -0.5198855700   0.0000000000
 H           1.0   2.0050986854   1.1904687596   0.0000000000
 H           1.0   0.4772448200  -1.4866678864  -0.0000000000
 $END
!TRAVIS-CI SMALL
