! 2SF-MRMP2 calculation of 1,3-butadiene
! This uses the ALDET code rather than ORMAS, but in principle
! one could use either. 
! 
! FINAL ROHF ENERGY IS     -154.6749884129 AFTER  17 ITERATIONS
! CI Singlet Energies:
! STATE   1  ENERGY=      -154.9928679632  S=  0.00  SZ=  0.00  SPACE SYM=AG
! STATE   3  ENERGY=      -154.7659479758  S=  0.00  SZ=  0.00  SPACE SYM=AG
!
! 2SF-MRMP2 Singlet Energies:
! STATE 1 ENERGY (MP2) = -155.561364553
! STATE 2 ENERGY (MP2) = -155.304875337
!
 $CONTRL SCFTYP=ROHF RUNTYP=energy
  mult=5 cityp=sfdet  
! nosym=1
  mplevl=2 
 $END
 $guess guess=moread norb=134 norder=1
        iorder(17)=18,17
  $end
 $SYSTEM mwords=400 $END
 $BASIS GBASIS=n311 ngauss=6 ndfunc=1 npfunc=1
  diffsp=.t. diffs=.t. $END
 $SCF DIRSCF=.TRUE. rstrct=.t. $END
! $mcscf cistep=aldet $end
 $cidet nstate=5 mxxpan=30 nhgss=400
        nels=4 nact=4 pures=.t. ncore=13
        wstate(1)=1.0,1.0
        mulsf=1
 $end
 $mrmp mrpt=detmrpt
 $end
 $detpt
   nptst=2 iptst(1)=1,3
   canon=.f.
 $end 
 $DATA
1,3, butadiene
CNH 2

 C           6.0  -0.6070426591   0.4048734615  -0.0000000000
 C           6.0  -1.8486824331  -0.1152587827  -0.0000000000
 H           1.0   2.7277329299  -0.5198855700   0.0000000000
 H           1.0   2.0050986854   1.1904687596   0.0000000000
 H           1.0   0.4772448200  -1.4866678864  -0.0000000000
 $END
 $VEC   
 1  1 3.98458866E-01 3.29680240E-01 2.16427655E-05 2.55005775E-04 0.00000000E+00
 1  2 2.94888067E-03-3.34984373E-04 4.10955990E-05 0.00000000E+00 1.12308550E-03
 1  3 5.78182772E-04 5.63828209E-04 0.00000000E+00-2.73395768E-03-1.14100623E-03
 1  4-8.80764502E-04 0.00000000E+00-6.01743465E-04-8.29244627E-04-1.01049370E-03
 1  5-1.74274281E-04 0.00000000E+00 0.00000000E+00 3.98458865E-01 3.29680239E-01
 1  6-2.16427684E-05-2.55005774E-04 0.00000000E+00 2.94888066E-03 3.34984378E-04
 1  7-4.10956022E-05 0.00000000E+00 1.12308549E-03-5.78182774E-04-5.63828207E-04
 1  8 0.00000000E+00-2.73395753E-03 1.14100627E-03 8.80764443E-04 0.00000000E+00
 1  9-6.01743462E-04-8.29244626E-04-1.01049370E-03-1.74274284E-04 0.00000000E+00
 1 10 0.00000000E+00 2.93240054E-03 2.37299812E-03-3.57705122E-05-1.07328323E-05
 1 11 0.00000000E+00 3.07302568E-04-5.18662688E-04-2.08901242E-04 0.00000000E+00
 1 12-9.61105951E-04 5.20275484E-04 4.72730136E-05 0.00000000E+00 3.28196641E-03
 1 13-7.01672333E-04-2.54151002E-04 0.00000000E+00 2.89412186E-04-1.56438565E-04
 1 14-3.14608557E-05 2.02155074E-04 0.00000000E+00 0.00000000E+00 2.93240053E-03
 1 15 2.37299811E-03 3.57705127E-05 1.07328326E-05 0.00000000E+00 3.07302572E-04
 1 16 5.18662687E-04 2.08901241E-04 0.00000000E+00-9.61105961E-04-5.20275483E-04
 1 17-4.72730131E-05 0.00000000E+00 3.28196637E-03 7.01672315E-04 2.54151029E-04
 1 18 0.00000000E+00 2.89412188E-04-1.56438563E-04-3.14608540E-05 2.02155073E-04
 1 19 0.00000000E+00 0.00000000E+00 2.43671085E-05 9.62422379E-05-2.21263116E-04
 1 20 9.38213220E-05 6.34960383E-05-3.18527819E-06 0.00000000E+00 2.43671085E-05
 1 21 9.62422387E-05-2.21263117E-04 9.38213400E-05-6.34960399E-05 3.18527879E-06
 1 22 0.00000000E+00 3.75129521E-05 2.44391182E-04-1.29661249E-04-3.38511093E-05
 1 23 3.75616952E-05 7.74482549E-05 0.00000000E+00 3.75129510E-05 2.44391186E-04
 1 24-1.29661261E-04-3.38511308E-05-3.75616961E-05-7.74482563E-05 0.00000000E+00
 1 25 2.26147936E-04 4.47046688E-04-1.30768494E-04-3.99811578E-04-3.23809072E-05
 1 26-2.82165190E-04 0.00000000E+00 2.26147937E-04 4.47046687E-04-1.30768500E-04
 1 27-3.99811608E-04 3.23809062E-05 2.82165190E-04 0.00000000E+00
 2  1-3.98503696E-01-3.29765864E-01 3.21191355E-05-2.71715316E-04 0.00000000E+00
 2  2-2.73916103E-03-4.57728361E-04 4.01896405E-04 0.00000000E+00-2.02825925E-03
 2  3 5.50895572E-04-7.41845297E-04 0.00000000E+00 3.66568079E-03-7.03252110E-04
 2  4 6.78869929E-04 0.00000000E+00 9.42053096E-04 7.92138254E-04 9.98491412E-04
 2  5-3.40987943E-04 0.00000000E+00 0.00000000E+00 3.98503697E-01 3.29765865E-01
 2  6 3.21191341E-05-2.71715318E-04 0.00000000E+00 2.73916104E-03-4.57728358E-04
 2  7 4.01896406E-04 0.00000000E+00 2.02825925E-03 5.50895570E-04-7.41845299E-04
 2  8 0.00000000E+00-3.66568077E-03-7.03252126E-04 6.78869924E-04 0.00000000E+00
 2  9-9.42053098E-04-7.92138257E-04-9.98491413E-04 3.40987942E-04 0.00000000E+00
 2 10 0.00000000E+00-2.98281059E-03-2.41809671E-03 4.64624808E-05 2.38757695E-05
 2 11 0.00000000E+00-1.82292301E-04 2.61165869E-04 1.43849776E-04 0.00000000E+00
 2 12 3.41457385E-04-2.82303900E-04 1.68533199E-04 0.00000000E+00-6.77023149E-04
 2 13 9.96190949E-05-2.21634022E-05 0.00000000E+00-1.55296659E-04 6.94393742E-05
 2 14 7.85419631E-05-1.61480895E-04 0.00000000E+00 0.00000000E+00 2.98281058E-03
 2 15 2.41809670E-03 4.64624809E-05 2.38757704E-05 0.00000000E+00 1.82292302E-04
 2 16 2.61165872E-04 1.43849777E-04 0.00000000E+00-3.41457389E-04-2.82303903E-04
 2 17 1.68533199E-04 0.00000000E+00 6.77023130E-04 9.96190942E-05-2.21634130E-05
 2 18 0.00000000E+00 1.55296660E-04-6.94393747E-05-7.85419628E-05 1.61480896E-04
 2 19 0.00000000E+00 0.00000000E+00 3.22094149E-05 4.73891999E-05-1.26803312E-04
 2 20-9.01296977E-05 3.43910226E-05-7.37318142E-06 0.00000000E+00-3.22094149E-05
 2 21-4.73891991E-05 1.26803310E-04 9.01297040E-05 3.43910232E-05-7.37318114E-06
 2 22 0.00000000E+00 5.69426391E-06 1.07742076E-04 3.46838531E-05-8.15812255E-05
 2 23 1.54592440E-05 2.49760599E-05 0.00000000E+00-5.69426330E-06-1.07742074E-04
 2 24-3.46838547E-05 8.15812153E-05 1.54592441E-05 2.49760600E-05 0.00000000E+00
 2 25 1.67258550E-04 1.81000544E-04 3.23220082E-05-8.14004355E-05-5.31809518E-05
 2 26-1.82631471E-04 0.00000000E+00-1.67258549E-04-1.81000545E-04-3.23220054E-05
 2 27 8.14004418E-05-5.31809514E-05-1.82631470E-04 0.00000000E+00
 3  1-3.01945988E-03-2.54794553E-03-4.79623935E-06-4.34191153E-06 0.00000000E+00
 3  2 2.77204088E-04 4.15791789E-04 2.60594622E-04 0.00000000E+00-3.32828210E-04
 3  3-7.00906297E-05 6.40889095E-05 0.00000000E+00-6.06819242E-04-7.83689504E-04
 3  4-4.79972743E-04 0.00000000E+00 3.30067027E-04-9.71687690E-05-3.35496023E-05
 3  5 1.89362597E-04 0.00000000E+00 0.00000000E+00-3.02053113E-03-2.54884651E-03
 3  6 4.79842256E-06 4.34109506E-06 0.00000000E+00 2.77271619E-04-4.16018376E-04
 3  7-2.60661873E-04 0.00000000E+00-3.33001875E-04 7.03482635E-05-6.40354696E-05
 3  8 0.00000000E+00-6.08474916E-04 7.83259542E-04 4.80431918E-04 0.00000000E+00
 3  9 3.30166785E-04-9.71832746E-05-3.35748113E-05 1.89460015E-04 0.00000000E+00
 3 10 0.00000000E+00 3.98379683E-01 3.29654602E-01-4.90296733E-04-1.86476639E-04
 3 11 0.00000000E+00 3.09600140E-03 3.44621598E-04 1.28335783E-04 0.00000000E+00
 3 12 6.10382300E-04-1.71048618E-04-1.32499133E-04 0.00000000E+00 1.04384343E-03
 3 13 7.29011919E-05-2.18469401E-04 0.00000000E+00-9.53974422E-04-9.38866311E-04
 3 14-9.56066059E-04-3.41530690E-05 0.00000000E+00 0.00000000E+00 3.98519137E-01
 3 15 3.29769993E-01 4.90476640E-04 1.86541698E-04 0.00000000E+00 3.09707313E-03
 3 16-3.44758690E-04-1.28382419E-04 0.00000000E+00 6.10900364E-04 1.71269856E-04
 3 17 1.32558341E-04 0.00000000E+00 1.04400682E-03-7.29082562E-05 2.18312876E-04
 3 18 0.00000000E+00-9.54330262E-04-9.39195076E-04-9.56414465E-04-3.41638391E-05
 3 19 0.00000000E+00 0.00000000E+00 1.67740546E-04 1.64656299E-04-2.67711333E-04
 3 20-1.12820944E-04 1.77083103E-04-1.08131206E-04 0.00000000E+00 1.67684608E-04
 3 21 1.64599112E-04-2.67661230E-04-1.12836792E-04-1.77022899E-04 1.08088288E-04
 3 22 0.00000000E+00 1.73105627E-04 1.84234003E-04-1.46242696E-04 9.36510801E-05
 3 23 4.35096201E-05 2.16942563E-04 0.00000000E+00 1.73045391E-04 1.84189874E-04
 3 24-1.46174161E-04 9.37821641E-05-4.34968606E-05-2.16869294E-04 0.00000000E+00
 3 25 3.85033792E-05 2.41284177E-04-1.73395047E-04-1.90793489E-04-5.29427399E-06
 3 26-6.18528917E-05 0.00000000E+00 3.84958120E-05 2.41282718E-04-1.73352746E-04
 3 27-1.90637186E-04 5.28263858E-06 6.18499258E-05 0.00000000E+00
 4  1-3.06132552E-03-2.57477091E-03-6.23707265E-06 2.33238365E-06 0.00000000E+00
 4  2 1.92991806E-04 6.47473808E-04 1.92194375E-04 0.00000000E+00-4.96240605E-04
 4  3-7.36119773E-04-1.52675174E-04 0.00000000E+00-4.73095561E-03 1.22831916E-03
 4  4-1.31211363E-03 0.00000000E+00 2.85086031E-04-4.14626309E-05-7.20340054E-05
 4  5 2.78374750E-04 0.00000000E+00 0.00000000E+00 3.06026854E-03 2.57387899E-03
 4  6-6.23539332E-06 2.33390345E-06 0.00000000E+00-1.92894774E-04 6.47328242E-04
 4  7 1.92103154E-04 0.00000000E+00 4.96124077E-04-7.36095190E-04-1.52697589E-04
 4  8 0.00000000E+00 4.73074301E-03 1.22859333E-03-1.31194558E-03 0.00000000E+00
 4  9-2.84970491E-04 4.14286211E-05 7.20222584E-05-2.78308457E-04 0.00000000E+00
 4 10 0.00000000E+00 3.98514841E-01 3.29753024E-01-5.14114980E-04-1.85918808E-04
 4 11 0.00000000E+00 3.06266309E-03 3.91764368E-04 1.33270578E-04 0.00000000E+00
 4 12 1.48031703E-03-6.32146514E-04-1.69191924E-04 0.00000000E+00 4.67241651E-04
 4 13 2.01326350E-05 4.47191963E-04 0.00000000E+00-1.01686307E-03-9.39505391E-04
 4 14-9.95627248E-04-3.07821848E-05 0.00000000E+00 0.00000000E+00-3.98375386E-01
 4 15-3.29637626E-01-5.13943347E-04-1.85853530E-04 0.00000000E+00-3.06157931E-03
 4 16 3.91643727E-04 1.33225652E-04 0.00000000E+00-1.48010329E-03-6.32086604E-04
 4 17-1.69145536E-04 0.00000000E+00-4.66876383E-04 2.01071107E-05 4.47268376E-04
 4 18 0.00000000E+00 1.01652912E-03 9.39176735E-04 9.95292568E-04 3.07702288E-05
 4 19 0.00000000E+00 0.00000000E+00-1.59793511E-04-1.63354733E-04 1.43102762E-04
 4 20-4.53307183E-05-1.71976901E-04 1.22605052E-04 0.00000000E+00 1.59852212E-04
 4 21 1.63412348E-04-1.43196445E-04 4.52912463E-05-1.72038867E-04 1.22642890E-04
 4 22 0.00000000E+00-1.72073551E-04-1.26045291E-04 1.95793573E-04 3.74561643E-04
 4 23-3.64484635E-05-2.09308270E-04 0.00000000E+00 1.72134126E-04 1.26109765E-04
 4 24-1.95844746E-04-3.74528853E-04-3.64636891E-05-2.09384186E-04 0.00000000E+00
 4 25-2.16155643E-05-4.12752327E-06 1.20836137E-04 4.46603098E-04 3.32446141E-05
 4 26 8.46516374E-06 0.00000000E+00 2.16290395E-05 4.21196956E-06-1.20896816E-04
 4 27-4.46669835E-04 3.32464650E-05 8.48681181E-06 0.00000000E+00
 5  1-7.47242873E-02-1.22603581E-01-1.86308898E-03 2.12789223E-02 0.00000000E+00
 5  2 3.21908765E-01-9.76179244E-03 4.01439052E-02 0.00000000E+00 1.58792245E-01
 5  3 9.71649388E-05 1.20982686E-02 0.00000000E+00-1.37311923E-01-6.62620266E-02
 5  4-6.76355320E-02 0.00000000E+00 1.88413715E-02 2.88312985E-03-1.17291555E-02
 5  5-2.80734460E-03 0.00000000E+00 0.00000000E+00-7.47242874E-02-1.22603581E-01
 5  6 1.86308887E-03-2.12789223E-02 0.00000000E+00 3.21908765E-01 9.76179225E-03
 5  7-4.01439052E-02 0.00000000E+00 1.58792245E-01-9.71648263E-05-1.20982687E-02
 5  8 0.00000000E+00-1.37311921E-01 6.62620258E-02 6.76355317E-02 0.00000000E+00
 5  9 1.88413715E-02 2.88312985E-03-1.17291555E-02-2.80734457E-03 0.00000000E+00
 5 10 0.00000000E+00-4.21483161E-02-6.89141831E-02-3.60021867E-02-1.03952449E-02
 5 11 0.00000000E+00 1.75461084E-01-5.88417270E-02-1.80407439E-02 0.00000000E+00
 5 12 7.24975721E-02-5.48946748E-03-4.48679408E-03 0.00000000E+00 1.74264489E-01
 5 13-2.60003519E-02-6.87320569E-03 0.00000000E+00 1.39594007E-02-2.48808293E-03
 5 14-7.25029179E-03 6.35448120E-03 0.00000000E+00 0.00000000E+00-4.21483162E-02
 5 15-6.89141833E-02 3.60021868E-02 1.03952449E-02 0.00000000E+00 1.75461084E-01
 5 16 5.88417271E-02 1.80407440E-02 0.00000000E+00 7.24975723E-02 5.48946746E-03
 5 17 4.48679414E-03 0.00000000E+00 1.74264487E-01 2.60003512E-02 6.87320551E-03
 5 18 0.00000000E+00 1.39594008E-02-2.48808293E-03-7.25029180E-03 6.35448122E-03
 5 19 0.00000000E+00 0.00000000E+00 1.75777089E-02 2.34194134E-02-1.15223200E-02
 5 20-8.95021981E-04 5.39721526E-03-1.75527524E-03 0.00000000E+00 1.75777088E-02
 5 21 2.34194133E-02-1.15223200E-02-8.95021879E-04-5.39721524E-03 1.75527522E-03
 5 22 0.00000000E+00 2.21947370E-02 3.34984039E-02-8.76725410E-03-6.34126416E-03
 5 23 2.73798292E-03 6.95805631E-03 0.00000000E+00 2.21947369E-02 3.34984038E-02
 5 24-8.76725410E-03-6.34126412E-03-2.73798291E-03-6.95805630E-03 0.00000000E+00
 5 25 4.36227973E-02 6.38234294E-02-1.75229756E-02-2.30348820E-02-1.70072137E-03
 5 26-1.29552097E-02 0.00000000E+00 4.36227973E-02 6.38234293E-02-1.75229756E-02
 5 27-2.30348821E-02 1.70072137E-03 1.29552097E-02 0.00000000E+00
 6  1 5.04596424E-02 8.37008983E-02-6.73401328E-02-7.71800524E-03 0.00000000E+00
 6  2-2.20071552E-01-1.08079222E-01-1.23939003E-02 0.00000000E+00-1.31590852E-01
 6  3-1.94471785E-02-5.01137087E-03 0.00000000E+00 6.64444276E-01-4.30721052E-02
 6  4 1.52831614E-01 0.00000000E+00-7.30264542E-03-1.29729573E-03 7.98716379E-03
 6  5-1.43266932E-02 0.00000000E+00 0.00000000E+00-5.04596422E-02-8.37008980E-02
 6  6-6.73401329E-02-7.71800523E-03 0.00000000E+00 2.20071551E-01-1.08079222E-01
 6  7-1.23939003E-02 0.00000000E+00 1.31590851E-01-1.94471785E-02-5.01137089E-03
 6  8 0.00000000E+00-6.64444275E-01-4.30721060E-02 1.52831613E-01 0.00000000E+00
 6  9 7.30264540E-03 1.29729571E-03-7.98716376E-03 1.43266932E-02 0.00000000E+00
 6 10 0.00000000E+00 6.41621406E-02 1.05814317E-01 3.83323936E-02 1.91021000E-02
 6 11 0.00000000E+00-2.70095649E-01 6.05255322E-02 3.04008537E-02 0.00000000E+00
 6 12-1.46834335E-01 1.33300056E-02 6.76347884E-03 0.00000000E+00-2.73609880E-01
 6 13 5.99699665E-02-2.19239582E-02 0.00000000E+00-1.27952898E-02-1.05463479E-03
 6 14 9.91818061E-03-9.41732801E-03 0.00000000E+00 0.00000000E+00-6.41621406E-02
 6 15-1.05814317E-01 3.83323936E-02 1.91021000E-02 0.00000000E+00 2.70095649E-01
 6 16 6.05255321E-02 3.04008537E-02 0.00000000E+00 1.46834335E-01 1.33300057E-02
 6 17 6.76347882E-03 0.00000000E+00 2.73609879E-01 5.99699661E-02-2.19239586E-02
 6 18 0.00000000E+00 1.27952898E-02 1.05463480E-03-9.91818060E-03 9.41732800E-03
 6 19 0.00000000E+00 0.00000000E+00 3.83718881E-02 5.26861306E-02-1.27846456E-02
 6 20 1.33143451E-02 9.87131189E-03-4.90645201E-03 0.00000000E+00-3.83718881E-02
 6 21-5.26861306E-02 1.27846456E-02-1.33143451E-02 9.87131190E-03-4.90645200E-03
 6 22 0.00000000E+00 3.54383033E-02 4.90768624E-02-1.53129008E-02-2.64252132E-02
 6 23 3.41515771E-03 9.38815309E-03 0.00000000E+00-3.54383033E-02-4.90768624E-02
 6 24 1.53129008E-02 2.64252131E-02 3.41515771E-03 9.38815309E-03 0.00000000E+00
 6 25 3.06839157E-02 4.42189736E-02-1.46253484E-02-4.19770550E-02-3.73893806E-03
 6 26-7.95410600E-03 0.00000000E+00-3.06839159E-02-4.42189738E-02 1.46253484E-02
 6 27 4.19770551E-02-3.73893807E-03-7.95410603E-03 0.00000000E+00
 7  1 3.25155106E-02 5.42580197E-02 8.97440291E-02-4.95674745E-03 0.00000000E+00
 7  2-1.45383942E-01 1.48423552E-01-9.31120585E-03 0.00000000E+00-1.23808813E-01
 7  3 4.06886619E-02-8.12744237E-03 0.00000000E+00-3.50800209E-02-5.25511696E-02
 7  4 9.13367983E-04 0.00000000E+00 6.22597377E-03-1.18285058E-02 2.45902573E-03
 7  5 1.91270928E-02 0.00000000E+00 0.00000000E+00 3.25155108E-02 5.42580201E-02
 7  6-8.97440291E-02 4.95674717E-03 0.00000000E+00-1.45383943E-01-1.48423552E-01
 7  7 9.31120540E-03 0.00000000E+00-1.23808814E-01-4.06886619E-02 8.12744224E-03
 7  8 0.00000000E+00-3.50800163E-02 5.25511693E-02-9.13368999E-04 0.00000000E+00
 7  9 6.22597378E-03-1.18285058E-02 2.45902575E-03 1.91270927E-02 0.00000000E+00
 7 10 0.00000000E+00-6.16273924E-02-1.02760871E-01 2.51704700E-02-5.13665779E-03
 7 11 0.00000000E+00 2.63811665E-01 4.21994008E-02-4.94113255E-03 0.00000000E+00
 7 12 2.13355055E-01 5.18305245E-03-3.39512379E-03 0.00000000E+00 3.42433874E-02
 7 13 1.46082802E-02-2.77718679E-02 0.00000000E+00-1.37761494E-03 9.30674626E-03
 7 14-6.98894146E-03-2.90862878E-03 0.00000000E+00 0.00000000E+00-6.16273925E-02
 7 15-1.02760871E-01-2.51704701E-02 5.13665763E-03 0.00000000E+00 2.63811665E-01
 7 16-4.21994010E-02 4.94113230E-03 0.00000000E+00 2.13355055E-01-5.18305245E-03
 7 17 3.39512371E-03 0.00000000E+00 3.42433843E-02-1.46082810E-02 2.77718679E-02
 7 18 0.00000000E+00-1.37761495E-03 9.30674629E-03-6.98894147E-03-2.90862883E-03
 7 19 0.00000000E+00 0.00000000E+00 7.06836018E-02 9.98747941E-02-4.78015866E-03
 7 20-1.06216514E-02 1.16581570E-02-9.22101536E-03 0.00000000E+00 7.06836017E-02
 7 21 9.98747940E-02-4.78015872E-03-1.06216512E-02-1.16581570E-02 9.22101535E-03
 7 22 0.00000000E+00 5.47288281E-02 7.18239324E-02 3.76240963E-03 1.56371729E-02
 7 23 6.77858154E-04 1.11159139E-02 0.00000000E+00 5.47288279E-02 7.18239321E-02
 7 24 3.76240956E-03 1.56371727E-02-6.77858152E-04-1.11159138E-02 0.00000000E+00
 7 25-3.28729365E-02-4.52162025E-02-3.49743103E-04 3.71587717E-04-3.26224566E-03
 7 26 6.66762481E-03 0.00000000E+00-3.28729361E-02-4.52162020E-02-3.49743178E-04
 7 27 3.71587416E-04 3.26224567E-03-6.66762473E-03 0.00000000E+00
 8  1-3.94710853E-02-6.62180227E-02-1.52263388E-02-9.80558347E-02 0.00000000E+00
 8  2 1.77809401E-01-2.34680495E-02-1.54554456E-01 0.00000000E+00 1.58422556E-01
 8  3-1.85978125E-02-7.44316774E-02 0.00000000E+00-1.14904876E-01-1.50087704E-02
 8  4-1.60606485E-02 0.00000000E+00-1.41992531E-04 6.27764465E-03-3.70697815E-03
 8  5 3.05728506E-03 0.00000000E+00 0.00000000E+00 3.94710852E-02 6.62180225E-02
 8  6-1.52263384E-02-9.80558348E-02 0.00000000E+00-1.77809400E-01-2.34680489E-02
 8  7-1.54554456E-01 0.00000000E+00-1.58422555E-01-1.85978123E-02-7.44316775E-02
 8  8 0.00000000E+00 1.14904874E-01-1.50087689E-02-1.60606480E-02 0.00000000E+00
 8  9 1.41992517E-04-6.27764462E-03 3.70697814E-03-3.05728514E-03 0.00000000E+00
 8 10 0.00000000E+00 2.87466303E-02 4.81027379E-02-1.04365149E-02-4.71399838E-02
 8 11 0.00000000E+00-1.24819030E-01-1.70239399E-02-7.17673319E-02 0.00000000E+00
 8 12-9.44743650E-02-3.60627631E-03-3.24753210E-02 0.00000000E+00 9.10365129E-02
 8 13-1.92575488E-02 7.50765330E-04 0.00000000E+00-1.56338701E-03-3.55101118E-03
 8 14 3.30288918E-03 7.95147080E-03 0.00000000E+00 0.00000000E+00-2.87466301E-02
 8 15-4.81027376E-02-1.04365148E-02-4.71399839E-02 0.00000000E+00 1.24819029E-01
 8 16-1.70239398E-02-7.17673320E-02 0.00000000E+00 9.44743643E-02-3.60627638E-03
 8 17-3.24753210E-02 0.00000000E+00-9.10365102E-02-1.92575485E-02 7.50765911E-04
 8 18 0.00000000E+00 1.56338701E-03 3.55101116E-03-3.30288916E-03-7.95147079E-03
 8 19 0.00000000E+00 0.00000000E+00 1.48408111E-02 2.10700196E-02 2.19484719E-03
 8 20 1.14243886E-04 1.04670995E-03-2.99630200E-03 0.00000000E+00-1.48408114E-02
 8 21-2.10700200E-02-2.19484730E-03-1.14244047E-04 1.04671000E-03-2.99630203E-03
 8 22 0.00000000E+00 6.00360353E-02 8.49235701E-02 5.49722272E-03 9.34010427E-03
 8 23 2.30089905E-03 1.14242007E-02 0.00000000E+00-6.00360354E-02-8.49235702E-02
 8 24-5.49722264E-03-9.34010410E-03 2.30089905E-03 1.14242008E-02 0.00000000E+00
 8 25-1.05861652E-01-1.48843240E-01 2.89847691E-03-1.41792414E-02 1.82579135E-03
 8 26 1.91211728E-02 0.00000000E+00 1.05861652E-01 1.48843240E-01-2.89847708E-03
 8 27 1.41792412E-02 1.82579133E-03 1.91211728E-02 0.00000000E+00
 9  1 6.07687543E-03 1.06048872E-02-7.84127576E-02 9.88115537E-02 0.00000000E+00
 9  2-2.53899498E-02-1.23812479E-01 1.59283909E-01 0.00000000E+00-5.52930949E-02
 9  3-5.50630421E-02 9.23320265E-02 0.00000000E+00 1.03001772E-01 9.08909644E-02
 9  4 2.01017886E-02 0.00000000E+00 6.08530409E-03-3.53138625E-03 1.26188133E-03
 9  5-5.91347548E-03 0.00000000E+00 0.00000000E+00 6.07687549E-03 1.06048873E-02
 9  6 7.84127579E-02-9.88115533E-02 0.00000000E+00-2.53899501E-02 1.23812480E-01
 9  7-1.59283908E-01 0.00000000E+00-5.52930956E-02 5.50630420E-02-9.23320260E-02
 9  8 0.00000000E+00 1.03001778E-01-9.08909613E-02-2.01017912E-02 0.00000000E+00
 9  9 6.08530406E-03-3.53138622E-03 1.26188134E-03-5.91347550E-03 0.00000000E+00
 9 10 0.00000000E+00-9.08667917E-03-1.52112788E-02 4.67222693E-03 1.01776743E-01
 9 11 0.00000000E+00 3.91876771E-02 7.49220899E-03 1.57401784E-01 0.00000000E+00
 9 12 5.05572079E-02-2.93987451E-03 8.04881626E-02 0.00000000E+00-1.23786504E-01
 9 13-4.92997569E-03 3.61741875E-02 0.00000000E+00-2.30724236E-03 3.54821243E-03
 9 14-4.87945392E-04-8.74037572E-03 0.00000000E+00 0.00000000E+00-9.08667921E-03
 9 15-1.52112789E-02-4.67222742E-03-1.01776743E-01 0.00000000E+00 3.91876773E-02
 9 16-7.49220974E-03-1.57401784E-01 0.00000000E+00 5.05572082E-02 2.93987435E-03
 9 17-8.04881628E-02 0.00000000E+00-1.23786503E-01 4.92997591E-03-3.61741862E-02
 9 18 0.00000000E+00-2.30724245E-03 3.54821251E-03-4.87945392E-04-8.74037577E-03
 9 19 0.00000000E+00 0.00000000E+00-3.08061266E-02-4.89277797E-02 5.07913986E-03
 9 20 1.53716930E-02-7.36065676E-03 3.01284691E-04 0.00000000E+00-3.08061268E-02
 9 21-4.89277801E-02 5.07913969E-03 1.53716933E-02 7.36065679E-03-3.01284732E-04
 9 22 0.00000000E+00 8.37935523E-02 1.26363897E-01 4.69284529E-03 3.60502941E-03
 9 23 2.11591145E-03 1.39577793E-02 0.00000000E+00 8.37935521E-02 1.26363896E-01
 9 24 4.69284498E-03 3.60502827E-03-2.11591146E-03-1.39577792E-02 0.00000000E+00
 9 25-7.26520098E-02-1.07313081E-01 5.50531006E-03-5.74470578E-03 5.25039397E-03
 9 26 1.08922384E-02 0.00000000E+00-7.26520101E-02-1.07313081E-01 5.50530963E-03
 9 27-5.74470711E-03-5.25039396E-03-1.08922384E-02 0.00000000E+00
10  1-2.17976880E-02-3.71151593E-02 6.78233623E-02 6.69309807E-02 0.00000000E+00
10  2 9.96365613E-02 1.03986556E-01 1.03651138E-01 0.00000000E+00 1.32471070E-01
10  3 3.69397103E-02 8.44287899E-02 0.00000000E+00-3.02316160E-01-7.57304668E-02
10  4-5.69121308E-02 0.00000000E+00-2.89485218E-03 1.50590740E-03-2.56701125E-03
10  5 8.42401734E-03 0.00000000E+00 0.00000000E+00 2.17976879E-02 3.71151592E-02
10  6 6.78233624E-02 6.69309812E-02 0.00000000E+00-9.96365611E-02 1.03986557E-01
10  7 1.03651139E-01 0.00000000E+00-1.32471070E-01 3.69397106E-02 8.44287904E-02
10  8 0.00000000E+00 3.02316164E-01-7.57304689E-02-5.69121315E-02 0.00000000E+00
10  9 2.89485209E-03-1.50590731E-03 2.56701125E-03-8.42401739E-03 0.00000000E+00
10 10 0.00000000E+00 2.05360031E-02 3.45964304E-02-1.28989257E-01-5.24800271E-03
10 11 0.00000000E+00-8.68004759E-02-1.97832743E-01-8.58809247E-03 0.00000000E+00
10 12-1.53498816E-01-7.24756309E-02-1.14835188E-05 0.00000000E+00 2.84947743E-01
10 13-7.08952174E-02-9.78319225E-03 0.00000000E+00 1.27852420E-02-1.35836077E-02
10 14 1.22571818E-03 1.70382312E-02 0.00000000E+00 0.00000000E+00-2.05360031E-02
10 15-3.45964303E-02-1.28989257E-01-5.24800235E-03 0.00000000E+00 8.68004755E-02
10 16-1.97832743E-01-8.58809189E-03 0.00000000E+00 1.53498816E-01-7.24756311E-02
10 17-1.14831863E-05 0.00000000E+00-2.84947747E-01-7.08952180E-02-9.78319322E-03
10 18 0.00000000E+00-1.27852421E-02 1.35836077E-02-1.22571818E-03-1.70382312E-02
10 19 0.00000000E+00 0.00000000E+00 9.76814457E-02 1.45702886E-01 1.98405840E-02
10 20-9.28670832E-03 1.00143087E-02-1.20051797E-02 0.00000000E+00-9.76814454E-02
10 21-1.45702885E-01-1.98405836E-02 9.28670862E-03 1.00143087E-02-1.20051796E-02
10 22 0.00000000E+00 4.04405701E-02 5.57909541E-02 7.77733535E-03 3.73011733E-03
10 23-5.69714753E-03 6.69338132E-03 0.00000000E+00-4.04405704E-02-5.57909546E-02
10 24-7.77733539E-03-3.73011770E-03-5.69714751E-03 6.69338138E-03 0.00000000E+00
10 25 3.23600639E-02 4.36058309E-02-1.52682526E-03 1.98382582E-02 2.14893395E-03
10 26-4.41788020E-03 0.00000000E+00-3.23600634E-02-4.36058302E-02 1.52682544E-03
10 27-1.98382579E-02 2.14893396E-03-4.41788013E-03 0.00000000E+00
11  1 3.55537027E-03 6.05529174E-03-1.15051659E-01-7.43366043E-02 0.00000000E+00
11  2-2.01623389E-02-1.79981484E-01-1.16079240E-01 0.00000000E+00-9.69676835E-03
11  3-1.28573556E-01-1.06469578E-01 0.00000000E+00 3.43401770E-04 1.52746054E-03
11  4-3.09014547E-02 0.00000000E+00-2.22020699E-02 2.14502494E-02 4.41006859E-04
11  5-1.97096729E-02 0.00000000E+00 0.00000000E+00 3.55537019E-03 6.05529159E-03
11  6 1.15051659E-01 7.43366042E-02 0.00000000E+00-2.01623385E-02 1.79981484E-01
11  7 1.16079240E-01 0.00000000E+00-9.69676761E-03 1.28573556E-01 1.06469577E-01
11  8 0.00000000E+00 3.43399354E-04-1.52746311E-03 3.09014560E-02 0.00000000E+00
11  9-2.22020699E-02 2.14502494E-02 4.41006859E-04-1.97096728E-02 0.00000000E+00
11 10 0.00000000E+00 4.47186646E-03 7.36475374E-03 1.30712799E-01 2.73858290E-02
11 11 0.00000000E+00-2.30673764E-02 1.96123953E-01 3.86274441E-02 0.00000000E+00
11 12 8.42128341E-02 7.98038716E-02 7.33997626E-03 0.00000000E+00 1.13826009E-02
11 13-1.64971379E-02-1.55721916E-04 0.00000000E+00-1.25991463E-02 1.36073003E-02
11 14-2.31418762E-04-1.44898707E-02 0.00000000E+00 0.00000000E+00 4.47186650E-03
11 15 7.36475382E-03-1.30712798E-01-2.73858291E-02 0.00000000E+00-2.30673766E-02
11 16-1.96123953E-01-3.86274443E-02 0.00000000E+00 8.42128338E-02-7.98038714E-02
11 17-7.33997643E-03 0.00000000E+00 1.13825982E-02 1.64971372E-02 1.55721053E-04
11 18 0.00000000E+00-1.25991463E-02 1.36073003E-02-2.31418776E-04-1.44898707E-02
11 19 0.00000000E+00 0.00000000E+00 6.87606116E-02 1.02880518E-01 2.29417006E-02
11 20 1.02943276E-02 4.26335185E-03-9.47633381E-03 0.00000000E+00 6.87606119E-02
11 21 1.02880518E-01 2.29417007E-02 1.02943276E-02-4.26335189E-03 9.47633384E-03
11 22 0.00000000E+00 3.55632161E-02 5.61952005E-02 1.65572122E-02 1.35609814E-02
11 23-4.93793623E-03 4.24799064E-03 0.00000000E+00 3.55632161E-02 5.61952005E-02
11 24 1.65572124E-02 1.35609820E-02 4.93793625E-03-4.24799065E-03 0.00000000E+00
11 25 7.02478348E-02 1.00810947E-01 5.44185627E-03-2.47528987E-02 4.83677572E-03
11 26-8.21617877E-03 0.00000000E+00 7.02478348E-02 1.00810947E-01 5.44185632E-03
11 27-2.47528980E-02-4.83677572E-03 8.21617877E-03 0.00000000E+00
12  1-1.01437081E-02-1.72344819E-02-3.93565583E-02-4.66609455E-02 0.00000000E+00
12  2 4.59918870E-02-5.82404354E-02-7.76292057E-02 0.00000000E+00 5.69715489E-02
12  3-2.80522425E-02-6.54517446E-02 0.00000000E+00-7.61558595E-02 7.65145900E-02
12  4-6.36504081E-02 0.00000000E+00-1.44458319E-02 1.36608056E-02 5.06160568E-05
12  5 1.45350554E-02 0.00000000E+00 0.00000000E+00 1.01437080E-02 1.72344819E-02
12  6-3.93565578E-02-4.66609461E-02 0.00000000E+00-4.59918868E-02-5.82404346E-02
12  7-7.76292066E-02 0.00000000E+00-5.69715488E-02-2.80522422E-02-6.54517454E-02
12  8 0.00000000E+00 7.61558572E-02 7.65145909E-02-6.36504078E-02 0.00000000E+00
12  9 1.44458321E-02-1.36608057E-02-5.06160494E-05-1.45350556E-02 0.00000000E+00
12 10 0.00000000E+00 1.42060291E-03 2.43483028E-03-1.69634136E-02 1.32470165E-01
12 11 0.00000000E+00-8.81094749E-03-2.71547273E-02 2.08265147E-01 0.00000000E+00
12 12 1.66002308E-02-4.10242499E-02 1.56058722E-01 0.00000000E+00-6.53991769E-02
12 13-2.32521281E-03 5.37457064E-02 0.00000000E+00-1.57464420E-02 1.51082711E-02
12 14-1.51099775E-04 8.42133183E-03 0.00000000E+00 0.00000000E+00-1.42060291E-03
12 15-2.43483029E-03-1.69634139E-02 1.32470165E-01 0.00000000E+00 8.81094753E-03
12 16-2.71547278E-02 2.08265148E-01 0.00000000E+00-1.66002309E-02-4.10242505E-02
12 17 1.56058722E-01 0.00000000E+00 6.53991793E-02-2.32521240E-03 5.37457070E-02
12 18 0.00000000E+00 1.57464421E-02-1.51082712E-02 1.51099781E-04-8.42133196E-03
12 19 0.00000000E+00 0.00000000E+00 7.99707414E-02 1.19739442E-01 7.57646572E-03
12 20-1.63363434E-02 1.15532355E-02-1.19429505E-03 0.00000000E+00-7.99707410E-02
12 21-1.19739441E-01-7.57646573E-03 1.63363433E-02 1.15532354E-02-1.19429503E-03
12 22 0.00000000E+00-1.07676785E-01-1.64649266E-01-2.03837078E-02 2.60945763E-02
12 23-4.59173463E-03-1.28320339E-02 0.00000000E+00 1.07676784E-01 1.64649265E-01
12 24 2.03837077E-02-2.60945761E-02-4.59173459E-03-1.28320339E-02 0.00000000E+00
12 25-5.62609391E-02-8.69009897E-02-1.72903875E-03 3.44772143E-02 7.47895573E-04
12 26 6.39053804E-03 0.00000000E+00 5.62609387E-02 8.69009890E-02 1.72903869E-03
12 27-3.44772144E-02 7.47895533E-04 6.39053800E-03 0.00000000E+00
13  1-8.04717290E-03-1.32175919E-02-6.14782595E-02 9.96089067E-02 0.00000000E+00
13  2 4.11166943E-02-9.95490186E-02 1.59343332E-01 0.00000000E+00 2.68423413E-02
13  3-2.55821338E-02 1.54555288E-01 0.00000000E+00-5.79662028E-02-2.18625762E-02
13  4 2.05847546E-02 0.00000000E+00 2.39539082E-02-2.23182783E-02 1.79676085E-03
13  5-2.06137523E-02 0.00000000E+00 0.00000000E+00-8.04717296E-03-1.32175921E-02
13  6 6.14782597E-02-9.96089065E-02 0.00000000E+00 4.11166946E-02 9.95490189E-02
13  7-1.59343332E-01 0.00000000E+00 2.68423418E-02 2.55821340E-02-1.54555288E-01
13  8 0.00000000E+00-5.79662063E-02 2.18625759E-02-2.05847534E-02 0.00000000E+00
13  9 2.39539081E-02-2.23182782E-02 1.79676085E-03-2.06137522E-02 0.00000000E+00
13 10 0.00000000E+00-1.41554507E-03-2.29560772E-03 4.67467496E-02-9.18171897E-02
13 11 0.00000000E+00 7.69112694E-03 7.54363144E-02-1.44107594E-01 0.00000000E+00
13 12-3.31282751E-02 8.82092276E-02-1.31806968E-01 0.00000000E+00 4.80975043E-02
13 13 1.24367233E-03-3.52131895E-02 0.00000000E+00 1.57912722E-02-1.60035678E-02
13 14 8.45554869E-04-1.95607222E-02 0.00000000E+00 0.00000000E+00-1.41554505E-03
13 15-2.29560769E-03-4.67467495E-02 9.18171890E-02 0.00000000E+00 7.69112684E-03
13 16-7.54363142E-02 1.44107593E-01 0.00000000E+00-3.31282750E-02-8.82092274E-02
13 17 1.31806967E-01 0.00000000E+00 4.80975061E-02-1.24367180E-03 3.52131890E-02
13 18 0.00000000E+00 1.57912721E-02-1.60035678E-02 8.45554868E-04-1.95607221E-02
13 19 0.00000000E+00 0.00000000E+00 8.53755365E-02 1.26747128E-01 1.34761780E-02
13 20-1.02758937E-02 8.98053914E-03-1.88259191E-03 0.00000000E+00 8.53755370E-02
13 21 1.26747128E-01 1.34761780E-02-1.02758939E-02-8.98053920E-03 1.88259192E-03
13 22 0.00000000E+00-7.80205478E-02-1.16845624E-01-2.36133337E-02 1.18358624E-02
13 23-6.33752475E-03-6.77750490E-03 0.00000000E+00-7.80205483E-02-1.16845624E-01
13 24-2.36133337E-02 1.18358628E-02 6.33752478E-03 6.77750496E-03 0.00000000E+00
13 25-8.00863795E-02-1.22530430E-01-1.66493977E-02 3.61445945E-03 3.59787480E-03
13 26 6.43536731E-03 0.00000000E+00-8.00863798E-02-1.22530431E-01-1.66493976E-02
13 27 3.61446001E-03-3.59787479E-03-6.43536734E-03 0.00000000E+00
14  1 0.00000000E+00 0.00000000E+00 0.00000000E+00 0.00000000E+00 1.45003647E-01
14  2 0.00000000E+00 0.00000000E+00 0.00000000E+00 2.61789400E-01 0.00000000E+00
14  3 0.00000000E+00 0.00000000E+00 1.82213855E-01 0.00000000E+00 0.00000000E+00
14  4 0.00000000E+00-4.64560072E-03 0.00000000E+00 0.00000000E+00 0.00000000E+00