!   (HF)5 1e- and 2e- IOTC energy by picture change corrected (PCC) DFT
!   direct SCF method (DIRSCF=.T.) can be adopted.
!   RHF/SPKrDZC (Sapporo relativistic core/valence basis set)
!   The basis has 120 contracted and 245 uncontracted AOs, containing up to d function.
!
!   final energy:
!   direct SCF calculation
!     the 1e- and 2e-LUT-IOTC w/ PCC (relwfn=lutiotc2, pccdft=.t., dirscf=.t.) run is
!        FINAL R-B3LYP ENERGY IS     -502.4657451486 AFTER  17 ITERATIONS
!     the 1e- and 2e-LUT-IOTC w/o PCC (relwfn=lutiotc2, pccdft=.f., dirscf=.t.) run is
!        FINAL R-B3LYP ENERGY IS     -502.4875310345 AFTER  17 ITERATIONS
!   disk-based calculation
!     the 1e- and 2e-LUT-IOTC w/ PCC (relwfn=lutiotc2, pccdft=.t., dirscf=.f.) run is
!        FINAL R-B3LYP ENERGY IS     -502.4657451501 AFTER  17 ITERATIONS
!     the 1e- and 2e-LUT-IOTC w/o PCC (relwfn=lutiotc2, pccdft=.f., dirscf=.f.) run is
!        FINAL R-B3LYP ENERGY IS     -502.4875310330 AFTER  17 ITERATIONS
!
!   CPU time for all processes
!   direct SCF calculation
!     1e- and 2e-LUT-IOTC w/ PCC  (relwfn=lutiotc2, pccdft=.t., dirscf=.t.): 118.10 [second]
!     1e- and 2e-LUT-IOTC w/o PCC (relwfn=lutiotc2, pccdft=.f., dirscf=.t.):  27.39 [second]
!   disk-based calculation
!     1e- and 2e-LUT-IOTC w/ PCC  (relwfn=lutiotc2, pccdft=.t., dirscf=.f.): 101.43 [second]
!     1e- and 2e-LUT-IOTC w/o PCC (relwfn=lutiotc2, pccdft=.f., dirscf=.f.):  10.72 [second]
!   on 1core of Intel(R) Xeon(R) Gold 5222 CPU @ 3.80GHz (17 April 2023)
!
!
 $contrl runtyp=energy scftyp=rhf relwfn=lutiotc2 dfttyp=b3lyp  
         icharg=0 mult=1 ispher=1 $end
 $system mwords=2 $end
 $relwfn pccdft=.t. $end
 $scf    dirscf=.t. $end
 $guess  guess=huckel $end
 $basis  gbasis=spkrdzc $end
 $data
test zigzag hexamer (HF)5
C1
F        9.0   0.000   0.000   0.000
F        9.0   2.165   1.250   0.000
F        9.0   4.330   0.000   0.000
F        9.0   6.495   1.250   0.000
F        9.0   8.660   0.000   0.000
H        1.0  -0.840   0.485   0.000
H        1.0   1.325   0.765   0.000
H        1.0   3.490   0.485   0.000
H        1.0   5.655   0.765   0.000
H        1.0   7.820   0.485   0.000
 $end 




