!   (HF)5 1e- and 2e- IOTC energy obtained by LUT and divide-and-conquer method
!   CCSD/uncontracted 6-31G(d,p) basis
!   The basis has 175 uncontracted AOs, containing up to d function.
!
!   final CCSD energy:
!   the 1e- and 2e-LUT-IOTC (relwfn=lutiotc2) run is
!     CCSD    ENERGY:     -501.8087978439   CORR.E=  -1.2427852218
!   the 1e-LUT-IOTC (relwfn=lutiotc) run is
!     CCSD    ENERGY:     -501.7848218116   CORR.E=  -1.2438475133
!   the nonrelativistic (relwfn=none) run is
!     CCSD    ENERGY:     -501.3539143740   CORR.E=  -1.2420670529
!
!   CPU time for all processes
!     1e- and 2e-LUT-IOTC (relwfn=lutiotc2): 1158.73 [second]
!     1e-LUT-IOTC (relwfn=lutiotc)         : 1158.24 [second]
!     nonrelativistic (relwfn=none)        : 1137.12 [second]
!   on 1core of Intel(R) Xeon(R) Gold 5222 CPU @ 3.80GHz (17 April 2023)
!
 $contrl runtyp=energy scftyp=rhf relwfn=lutiotc2 cctyp=ccsd
         icharg=0 mult=1 $end
 $system mwords=5000 $end
 $scf    dirscf=.f. $end
 $guess  guess=hucsub $end
 $dandc  dcflg=.true. bufrad=11.0 subtyp=autbnd sublng=3.0 $end
 $dccorr dodccr=.true. rbufcr=5.0 fzcore=.false. $end
 $data
zigzag hexamer (HF)5 uncontracted 6-31G(d,p) basis
C1
F        9.0   0.000   0.000   0.000
S   1
  1  7001.71309000   1.00000000 
S   1
  1  1051.36609000   1.00000000 
S   1
  1   239.28569000   1.00000000 
S   1
  1    67.39744530   1.00000000 
S   1
  1    21.51995730   1.00000000 
S   1
  1     7.40310130   1.00000000 
S   1
  1    20.84795280   1.00000000 
S   1
  1     4.80830834   1.00000000 
S   1
  1     1.34406986   1.00000000 
S   1
  1     0.35815139   1.00000000 
P   1
  1    20.84795280   1.00000000 
P   1
  1     4.80830834   1.00000000 
P   1
  1     1.34406986   1.00000000 
P   1
  1     0.35815139   1.00000000 
D   1
  1     0.80000000   1.00000000 

F        9.0   2.165   1.250   0.000
S   1
  1  7001.71309000   1.00000000 
S   1
  1  1051.36609000   1.00000000 
S   1
  1   239.28569000   1.00000000 
S   1
  1    67.39744530   1.00000000 
S   1
  1    21.51995730   1.00000000 
S   1
  1     7.40310130   1.00000000 
S   1
  1    20.84795280   1.00000000 
S   1
  1     4.80830834   1.00000000 
S   1
  1     1.34406986   1.00000000 
S   1
  1     0.35815139   1.00000000 
P   1
  1    20.84795280   1.00000000 
P   1
  1     4.80830834   1.00000000 
P   1
  1     1.34406986   1.00000000 
P   1
  1     0.35815139   1.00000000 
D   1
  1     0.80000000   1.00000000 

F        9.0   4.330   0.000   0.000
S   1
  1  7001.71309000   1.00000000 
S   1
  1  1051.36609000   1.00000000 
S   1
  1   239.28569000   1.00000000 
S   1
  1    67.39744530   1.00000000 
S   1
  1    21.51995730   1.00000000 
S   1
  1     7.40310130   1.00000000 
S   1
  1    20.84795280   1.00000000 
S   1
  1     4.80830834   1.00000000 
S   1
  1     1.34406986   1.00000000 
S   1
  1     0.35815139   1.00000000 
P   1
  1    20.84795280   1.00000000 
P   1
  1     4.80830834   1.00000000 
P   1
  1     1.34406986   1.00000000 
P   1
  1     0.35815139   1.00000000 
D   1
  1     0.80000000   1.00000000 

F        9.0   6.495   1.250   0.000
S   1
  1  7001.71309000   1.00000000 
S   1
  1  1051.36609000   1.00000000 
S   1
  1   239.28569000   1.00000000 
S   1
  1    67.39744530   1.00000000 
S   1
  1    21.51995730   1.00000000 
S   1
  1     7.40310130   1.00000000 
S   1
  1    20.84795280   1.00000000 
S   1
  1     4.80830834   1.00000000 
S   1
  1     1.34406986   1.00000000 
S   1
  1     0.35815139   1.00000000 
P   1
  1    20.84795280   1.00000000 
P   1
  1     4.80830834   1.00000000 
P   1
  1     1.34406986   1.00000000 
P   1
  1     0.35815139   1.00000000 
D   1
  1     0.80000000   1.00000000 

F        9.0   8.660   0.000   0.000
S   1
  1  7001.71309000   1.00000000 
S   1
  1  1051.36609000   1.00000000 
S   1
  1   239.28569000   1.00000000 
S   1
  1    67.39744530   1.00000000 
S   1
  1    21.51995730   1.00000000 
S   1
  1     7.40310130   1.00000000 
S   1
  1    20.84795280   1.00000000 
S   1
  1     4.80830834   1.00000000 
S   1
  1     1.34406986   1.00000000 
S   1
  1     0.35815139   1.00000000 
P   1
  1    20.84795280   1.00000000 
P   1
  1     4.80830834   1.00000000 
P   1
  1     1.34406986   1.00000000 
P   1
  1     0.35815139   1.00000000 
D   1
  1     0.80000000   1.00000000 

H        1.0  -0.840   0.485   0.000
S   1
  1  18.73113700   1.00000000
S   1
  1   2.82539370   1.00000000
S   1
  1   0.64012170   1.00000000
S   1
  1   0.16127780   1.00000000
P   1
  1   1.10000000   1.00000000

H        1.0   1.325   0.765   0.000
S   1
  1  18.73113700   1.00000000
S   1
  1   2.82539370   1.00000000
S   1
  1   0.64012170   1.00000000
S   1
  1   0.16127780   1.00000000
P   1
  1   1.10000000   1.00000000

H        1.0   3.490   0.485   0.000
S   1
  1  18.73113700   1.00000000
S   1
  1   2.82539370   1.00000000
S   1
  1   0.64012170   1.00000000
S   1
  1   0.16127780   1.00000000
P   1
  1   1.10000000   1.00000000

H        1.0   5.655   0.765   0.000
S   1
  1  18.73113700   1.00000000
S   1
  1   2.82539370   1.00000000
S   1
  1   0.64012170   1.00000000
S   1
  1   0.16127780   1.00000000
P   1
  1   1.10000000   1.00000000

H        1.0   7.820   0.485   0.000
S   1
  1  18.73113700   1.00000000
S   1
  1   2.82539370   1.00000000
S   1
  1   0.64012170   1.00000000
S   1
  1   0.16127780   1.00000000
P   1
  1   1.10000000   1.00000000
 
 $end 
!TRAVIS-CI LARGE
!TRAVIS-CI SKIP
