 $CONTRL 
  RUNTYP=ENERGY 
  SCFTYP=RHF 
  RELWFN=LUTIOTC2
  ICHARG=0 
  MULT=1 
  MAXIT=200 
  ispher=1
 $END
 $SYSTEM 
  MWORDS=300 
 $END
 $SCF    
  DIRSCF=.F.
 $END
 $GUESS
  GUESS=HUCKEL
 $END
 $BASIS
  GBASIS=SPKrDZC
 $END
 $DATA
test on artificial molecule...(SnH3)(SeH)(I)Sb=S
C1
Sb   51.0    .4070872775    .7782398266   -.3936725280
Sn   50.0   1.1414728458   1.1356145862   2.3848588864
H     1.0   1.2527257999   -.4214651586   3.0224606970
H     1.0   2.6177043590   1.9484947995   2.3495726821
H     1.0   -.1127047214   2.0405969627   3.0535321693
Se   34.0   2.0684890776  -1.1125182760  -1.2134154093
H     1.0   2.1422107340   -.5803659875  -2.5852472725
I    53.0  -2.1302318016   -.6171154150   -.2143212107
S    16.0    .3754817088   2.6319401078  -1.8885256240
 $END

!TRAVIS-CI SKIP
!High variance in validated values across various mathlibs (Netlib,OpenBLAS,MKL)
