 $contrl qmttol=5e-6 $end
 $scf diis=.t. $end
 $contrl ispher=1 scftyp=rohf runtyp=gradient $end
 $contrl mult=3 icharg=0 $end
 $basis  gbasis=ccd $end
 $scf    dirscf=.true. $end
 $system mwords=30 $end
 $contrl mplevl=2 $end

 $lcchem denfit=.t. $end
 $system memddi=30000 $end
 $cchemri iauxbf=1 $end
 $mp2  code=ricchem $end
 $auxbas cabnam=CCt $end

 $data
rubrene_mult-3.rizapt-gradient.ccd_cct-sph.inp
C1
C     6.0    -0.70459998     0.00000000     0.00040000
C     6.0     0.70459998     0.00020000     0.00040000
C     6.0    -1.39230001    -1.22549999     0.00050000
C     6.0     1.39250004    -1.22520006     0.00080000
C     6.0    -1.39250004     1.22539997     0.00030000
C     6.0     1.39219999     1.22570002     0.00020000
C     6.0    -0.70560002    -2.45099998     0.00070000
C     6.0     0.70609999    -2.45090008     0.00090000
C     6.0    -0.70599997     2.45110011     0.00000000
C     6.0     0.70560002     2.45120001    -0.00020000
C     6.0    -2.85299993    -1.31260002    -0.00070000
C     6.0     2.85319996    -1.31219995     0.00010000
C     6.0    -2.85319996     1.31229997     0.00080000
C     6.0     2.85299993     1.31260002     0.00010000
C     6.0    -1.39250004    -3.67639995     0.00060000
C     6.0     1.39330006    -3.67610002     0.00130000
C     6.0    -1.39320004     3.67630005     0.00010000
C     6.0     1.39240003     3.67670012    -0.00050000
C     6.0    -0.69510001    -4.88460016     0.00110000
C     6.0     0.69610000    -4.88439989     0.00130000
C     6.0    -0.69610000     4.88469982    -0.00010000
C     6.0     0.69510001     4.88479996    -0.00060000
C     6.0    -3.53360009    -1.35329998     1.20690000
C     6.0     3.53239989    -1.35249996    -1.20829999
C     6.0    -3.53220010    -1.35210001    -1.20910001
C     6.0     3.53399992    -1.35230005     1.20770001
C     6.0    -3.53329992     1.35259998    -1.20720005
C     6.0     3.53270006     1.35339999     1.20819998
C     6.0    -3.53290009     1.35210001     1.20889997
C     6.0     3.53309989     1.35210001    -1.20799994
C     6.0    -4.92600012    -1.43610001     1.20609999
C     6.0     4.92479992    -1.43519998    -1.20930004
C     6.0    -4.92469978    -1.43480003    -1.20980000
C     6.0     4.92640018    -1.43480003     1.20659995
C     6.0    -4.92570019     1.43509996    -1.20700002
C     6.0     4.92509985     1.43589997     1.20829999
C     6.0    -4.92539978     1.43439996     1.20899999
C     6.0     4.92549992     1.43449998    -1.20760000
C     6.0    -5.62150002    -1.47669995    -0.00220000
C     6.0     5.62169981    -1.47630000    -0.00200000
C     6.0    -5.62179995     1.47590005     0.00090000
C     6.0     5.62150002     1.47640002     0.00060000
H     1.0    -2.47560000    -3.75640011     0.00030000
H     1.0     2.47650003    -3.75600004     0.00150000
H     1.0    -2.47639990     3.75609994     0.00040000
H     1.0     2.47560000     3.75670004    -0.00070000
H     1.0    -1.23790002    -5.82539988     0.00110000
H     1.0     1.23909998    -5.82509995     0.00160000
H     1.0    -1.23909998     5.82539988     0.00000000
H     1.0     1.23790002     5.82560015    -0.00080000
H     1.0    -3.00359988    -1.34739995     2.15680003
H     1.0     3.00110006    -1.34630001    -2.15759993
H     1.0    -3.00110006    -1.34529996    -2.15840006
H     1.0     3.00399995    -1.34599996     2.15759993
H     1.0    -3.00289989     1.34660006    -2.15680003
H     1.0     3.00189996     1.34749997     2.15759993
H     1.0    -3.00219989     1.34560001     2.15829992
H     1.0     3.00270009     1.34549999    -2.15759993
H     1.0    -5.46799994    -1.48520005     2.14630008
H     1.0     5.46560001    -1.48399997    -2.15030003
H     1.0    -5.46570015    -1.48290002    -2.15070009
H     1.0     5.46869993    -1.48329997     2.14680004
H     1.0    -5.46740007     1.48399997    -2.14750004
H     1.0     5.46649981     1.48490000     2.14890003
H     1.0    -5.46689987     1.48269999     2.14949989
H     1.0     5.46719980     1.48280001    -2.14800000
H     1.0    -6.70499992    -1.55299997    -0.00290000
H     1.0     6.70520020    -1.55260003    -0.00270000
H     1.0    -6.70529985     1.55200005     0.00110000
H     1.0     6.70499992     1.55250001     0.00080000
 $end
