! Geometry taken from J. Chem. Phys. 130, 054104 (2009). 
! ACCSD(1,0,0.5,0.5,0)=DCSD from J. Chem. Phys. 155, 064101 (2021).
!
!    REFERENCE ENERGY:      -74.9957645696
!        CCSDt ENERGY:      -75.1703896063   CORR. E=  -0.1746250367
!
 $contrl scftyp=rohf runtyp=energy cctyp=accsd coord=prinaxis
         mult=3 icharg=1 ispher=1 units=angs $end
 $system mwords=50 $end
 $scf couple=.true. alpha(1)=0.5,0.5,0.5 beta(1)=0.5,0.5,0.5 $end
 $basis gbasis=acct $end
 $ccinp ncore=1 acp(1)=1,0,0.5,0.5,0 $end
 $data 
OH+/aug-cc-pVTZ
cnv 2

O     8.0     0.0000000000        0.0000000000        0.0606658924
H     1.0     0.0000000000        0.0000000000       -0.9629718824
 $end

