! CCSDt         E=     -199.0564116949   CORR. E=  -0.6363154135
! CC(t;3),A     E=     -199.0577781338   CORR. E=  -0.6376818524
! CC(t;3)       E=     -199.0579347513   CORR. E=  -0.6378384699
!
 $contrl runtyp=energy scftyp=rohf cctyp=cct3 units=bohr $end
 $system mwords=50 $end
 $scf rstrct=.true. diis=.true. soscf=.false. $end
 $guess guess=moread norb=30 $end
 $ccinp ncore=2 nacto=5 nactu=1 $end
 $data
F2/cc-pVDZ at R = 2.0Re
Dnh 2

 F   9.0      0.00000000      0.00000000     2.66816
 S   8
  1  14710.0000000              0.0007210
  2   2207.0000000              0.0055530
  3    502.8000000              0.0282670
  4    142.6000000              0.1064440
  5     46.4700000              0.2868140
  6     16.7000000              0.4486410
  7      6.3560000              0.2647610
  8      1.3160000              0.0153330
 S   8
  1  14710.0000000             -0.0001650
  2   2207.0000000             -0.0013080
  3    502.8000000             -0.0064950
  4    142.6000000             -0.0266910
  5     46.4700000             -0.0736900
  6     16.7000000             -0.1707760
  7      6.3560000             -0.1123270
  8      1.3160000              0.5628140
 S   1
  1      0.3897000              1.0000000
 P   3
  1     22.6700000              0.0448780
  2      4.9770000              0.2357180
  3      1.3470000              0.5085210
 P   1
  1      0.3471000              1.0000000
 D   1
  1      1.6400000              1.0000000

 $end
 $VEC   
 1  1 7.07606515E-01 7.80630413E-04-8.13401281E-04 0.00000000E+00 0.00000000E+00
 1  2 7.46990033E-05 0.00000000E+00 0.00000000E+00 8.27857977E-06-6.26363570E-04
 1  3-6.26363569E-04-1.02758911E-03 0.00000000E+00 0.00000000E+00 0.00000000E+00
 1  4 7.07606515E-01 7.80630413E-04-8.13401281E-04 0.00000000E+00 0.00000000E+00
 1  5-7.46990033E-05 0.00000000E+00 0.00000000E+00-8.27857977E-06-6.26363570E-04
 1  6-6.26363569E-04-1.02758911E-03 0.00000000E+00 0.00000000E+00 0.00000000E+00
 2  1 7.07613840E-01 7.83728337E-04-8.63270463E-04-0.00000000E+00-0.00000000E+00
 2  2 6.33505769E-05-0.00000000E+00-0.00000000E+00-6.15996142E-05-6.09181744E-04
 2  3-6.09181742E-04-1.02303449E-03-0.00000000E+00-0.00000000E+00-0.00000000E+00
 2  4-7.07613840E-01-7.83728337E-04 8.63270463E-04-0.00000000E+00-0.00000000E+00
 2  5 6.33505769E-05-0.00000000E+00-0.00000000E+00-6.15996142E-05 6.09181744E-04
 2  6 6.09181742E-04 1.02303449E-03-0.00000000E+00-0.00000000E+00-0.00000000E+00
 3  1 1.65155886E-03 3.67781775E-01 4.01479271E-01-0.00000000E+00-0.00000000E+00
 3  2 2.51315425E-03-0.00000000E+00-0.00000000E+00 5.22764975E-03-1.62851269E-03
 3  3-1.62851269E-03-2.54506648E-03-0.00000000E+00-0.00000000E+00-0.00000000E+00
 3  4 1.65155886E-03 3.67781775E-01 4.01479271E-01-0.00000000E+00-0.00000000E+00
 3  5-2.51315425E-03-0.00000000E+00-0.00000000E+00-5.22764975E-03-1.62851269E-03
 3  6-1.62851269E-03-2.54506648E-03-0.00000000E+00-0.00000000E+00-0.00000000E+00
 4  1 2.70158701E-03 3.70418834E-01 3.98202308E-01 0.00000000E+00 0.00000000E+00
 4  2-6.40230991E-03 0.00000000E+00 0.00000000E+00-6.16518429E-03-5.45021850E-04
 4  3-5.45021852E-04-2.54807733E-03 0.00000000E+00 0.00000000E+00 0.00000000E+00
 4  4-2.70158701E-03-3.70418834E-01-3.98202308E-01 0.00000000E+00 0.00000000E+00
 4  5-6.40230991E-03 0.00000000E+00 0.00000000E+00-6.16518429E-03 5.45021850E-04
 4  6 5.45021852E-04 2.54807733E-03 0.00000000E+00 0.00000000E+00 0.00000000E+00
 5  1-0.00000000E+00-0.00000000E+00-0.00000000E+00-0.00000000E+00 4.91960650E-01
 5  2-0.00000000E+00-0.00000000E+00 3.20355770E-01-0.00000000E+00-0.00000000E+00
 5  3-0.00000000E+00-0.00000000E+00-0.00000000E+00-0.00000000E+00 4.74047062E-04
 5  4-0.00000000E+00-0.00000000E+00-0.00000000E+00-0.00000000E+00 4.91960650E-01
 5  5-0.00000000E+00-0.00000000E+00 3.20355770E-01-0.00000000E+00-0.00000000E+00
 5  6-0.00000000E+00-0.00000000E+00-0.00000000E+00-0.00000000E+00-4.74047062E-04
 6  1-0.00000000E+00-0.00000000E+00-0.00000000E+00 4.91960650E-01-0.00000000E+00
 6  2-0.00000000E+00 3.20355770E-01-0.00000000E+00-0.00000000E+00-0.00000000E+00
 6  3-0.00000000E+00-0.00000000E+00-0.00000000E+00 4.74047062E-04-0.00000000E+00
 6  4-0.00000000E+00-0.00000000E+00-0.00000000E+00 4.91960650E-01-0.00000000E+00
 6  5-0.00000000E+00 3.20355770E-01-0.00000000E+00-0.00000000E+00-0.00000000E+00
 6  6-0.00000000E+00-0.00000000E+00-0.00000000E+00-4.74047062E-04-0.00000000E+00
 7  1-4.91187469E-03-1.61506760E-02 1.01290110E-02 0.00000000E+00 0.00000000E+00
 7  2 4.36136348E-01 0.00000000E+00 0.00000000E+00 3.73930389E-01-4.06584955E-03
 7  3-4.06584954E-03 2.33341349E-04 0.00000000E+00 0.00000000E+00 0.00000000E+00
 7  4-4.91187469E-03-1.61506760E-02 1.01290110E-02 0.00000000E+00 0.00000000E+00
 7  5-4.36136348E-01 0.00000000E+00 0.00000000E+00-3.73930389E-01-4.06584955E-03
 7  6-4.06584954E-03 2.33341349E-04 0.00000000E+00 0.00000000E+00 0.00000000E+00
 8  1-0.00000000E+00-0.00000000E+00-0.00000000E+00-0.00000000E+00 4.94265589E-01
 8  2-0.00000000E+00-0.00000000E+00 3.19084690E-01-0.00000000E+00-0.00000000E+00
 8  3-0.00000000E+00-0.00000000E+00-0.00000000E+00-0.00000000E+00 2.24890456E-04
 8  4-0.00000000E+00-0.00000000E+00-0.00000000E+00-0.00000000E+00-4.94265589E-01
 8  5-0.00000000E+00-0.00000000E+00-3.19084690E-01-0.00000000E+00-0.00000000E+00
 8  6-0.00000000E+00-0.00000000E+00-0.00000000E+00-0.00000000E+00 2.24890456E-04
 9  1-0.00000000E+00-0.00000000E+00-0.00000000E+00 4.94265589E-01-0.00000000E+00
 9  2-0.00000000E+00 3.19084690E-01-0.00000000E+00-0.00000000E+00-0.00000000E+00
 9  3-0.00000000E+00-0.00000000E+00-0.00000000E+00 2.24890456E-04-0.00000000E+00
 9  4-0.00000000E+00-0.00000000E+00-0.00000000E+00-4.94265589E-01-0.00000000E+00
 9  5-0.00000000E+00-3.19084690E-01-0.00000000E+00-0.00000000E+00-0.00000000E+00
 9  6-0.00000000E+00-0.00000000E+00-0.00000000E+00 2.24890456E-04-0.00000000E+00
10  1 2.98192852E-03 1.38921908E-02-2.22234790E-03 0.00000000E+00 0.00000000E+00
10  2 4.59496248E-01 0.00000000E+00 0.00000000E+00 3.65179613E-01 2.68403191E-03
10  3 2.68403191E-03 4.03987550E-04 0.00000000E+00 0.00000000E+00 0.00000000E+00
10  4-2.98192852E-03-1.38921908E-02 2.22234790E-03 0.00000000E+00 0.00000000E+00
10  5 4.59496248E-01 0.00000000E+00 0.00000000E+00 3.65179613E-01-2.68403191E-03
10  6-2.68403191E-03-4.03987550E-04 0.00000000E+00 0.00000000E+00 0.00000000E+00
11  1-0.00000000E+00-0.00000000E+00-0.00000000E+00-6.44143551E-01-0.00000000E+00
11  2-0.00000000E+00 7.41390797E-01-0.00000000E+00-0.00000000E+00-0.00000000E+00
11  3-0.00000000E+00-0.00000000E+00-0.00000000E+00 4.16561306E-04-0.00000000E+00
11  4-0.00000000E+00-0.00000000E+00-0.00000000E+00-6.44143551E-01-0.00000000E+00
11  5-0.00000000E+00 7.41390797E-01-0.00000000E+00-0.00000000E+00-0.00000000E+00
11  6-0.00000000E+00-0.00000000E+00-0.00000000E+00-4.16561306E-04-0.00000000E+00
12  1-0.00000000E+00-0.00000000E+00-0.00000000E+00-0.00000000E+00-6.44143551E-01
12  2-0.00000000E+00-0.00000000E+00 7.41390797E-01-0.00000000E+00-0.00000000E+00
12  3-0.00000000E+00-0.00000000E+00-0.00000000E+00-0.00000000E+00 4.16561306E-04
12  4-0.00000000E+00-0.00000000E+00-0.00000000E+00-0.00000000E+00-6.44143551E-01
12  5-0.00000000E+00-0.00000000E+00 7.41390797E-01-0.00000000E+00-0.00000000E+00
12  6-0.00000000E+00-0.00000000E+00-0.00000000E+00-0.00000000E+00-4.16561306E-04
13  1-2.03362335E-01-4.58096764E-01 6.52549673E-01 0.00000000E+00 0.00000000E+00
13  2 5.69907863E-01 0.00000000E+00 0.00000000E+00-6.30994471E-01-9.25686121E-02
13  3-9.25686121E-02-8.90154190E-02 0.00000000E+00 0.00000000E+00 0.00000000E+00
13  4 2.03362335E-01 4.58096764E-01-6.52549673E-01 0.00000000E+00 0.00000000E+00
13  5 5.69907863E-01 0.00000000E+00 0.00000000E+00-6.30994471E-01 9.25686121E-02
13  6 9.25686121E-02 8.90154190E-02 0.00000000E+00 0.00000000E+00 0.00000000E+00
14  1-8.82575831E-02-2.00848351E-01 2.85113189E-01 0.00000000E+00 0.00000000E+00
14  2-6.56390912E-01 0.00000000E+00 0.00000000E+00 6.59120708E-01-4.46464762E-02
14  3-4.46464762E-02-4.00129619E-02 0.00000000E+00 0.00000000E+00 0.00000000E+00
14  4-8.82575831E-02-2.00848351E-01 2.85113189E-01 0.00000000E+00 0.00000000E+00
14  5 6.56390912E-01 0.00000000E+00 0.00000000E+00-6.59120708E-01-4.46464762E-02
14  6-4.46464762E-02-4.00129619E-02 0.00000000E+00 0.00000000E+00 0.00000000E+00
15  1 0.00000000E+00 0.00000000E+00 0.00000000E+00-6.44461166E-01 0.00000000E+00
15  2 0.00000000E+00 7.50038109E-01 0.00000000E+00 0.00000000E+00 0.00000000E+00
15  3 0.00000000E+00 0.00000000E+00 0.00000000E+00-8.31049644E-04 0.00000000E+00
15  4 0.00000000E+00 0.00000000E+00 0.00000000E+00 6.44461166E-01 0.00000000E+00
15  5 0.00000000E+00-7.50038109E-01 0.00000000E+00 0.00000000E+00 0.00000000E+00
15  6 0.00000000E+00 0.00000000E+00 0.00000000E+00-8.31049644E-04 0.00000000E+00
16  1 0.00000000E+00 0.00000000E+00 0.00000000E+00 0.00000000E+00-6.44461166E-01
16  2 0.00000000E+00 0.00000000E+00 7.50038109E-01 0.00000000E+00 0.00000000E+00
16  3 0.00000000E+00 0.00000000E+00 0.00000000E+00 0.00000000E+00-8.31049644E-04
16  4 0.00000000E+00 0.00000000E+00 0.00000000E+00 0.00000000E+00 6.44461166E-01
16  5 0.00000000E+00 0.00000000E+00-7.50038109E-01 0.00000000E+00 0.00000000E+00
16  6 0.00000000E+00 0.00000000E+00 0.00000000E+00 0.00000000E+00-8.31049644E-04
17  1-3.70761477E-01-8.33470489E-01 1.18730032E+00 0.00000000E+00 0.00000000E+00
17  2 1.64576618E-01 0.00000000E+00 0.00000000E+00-1.88732199E-01-1.62059365E-01
17  3-1.62059365E-01-1.62726721E-01 0.00000000E+00 0.00000000E+00 0.00000000E+00
17  4-3.70761477E-01-8.33470489E-01 1.18730032E+00 0.00000000E+00 0.00000000E+00
17  5-1.64576618E-01 0.00000000E+00 0.00000000E+00 1.88732199E-01-1.62059365E-01
17  6-1.62059365E-01-1.62726721E-01 0.00000000E+00 0.00000000E+00 0.00000000E+00
18  1-3.29695006E-01-7.40732055E-01 1.04736359E+00-0.00000000E+00-0.00000000E+00
18  2-3.66669817E-01-0.00000000E+00-0.00000000E+00 4.29911514E-01-1.33957055E-01
18  3-1.33957055E-01-1.41427656E-01-0.00000000E+00-0.00000000E+00-0.00000000E+00
18  4 3.29695006E-01 7.40732055E-01-1.04736359E+00-0.00000000E+00-0.00000000E+00
18  5-3.66669817E-01-0.00000000E+00-0.00000000E+00 4.29911514E-01 1.33957055E-01
18  6 1.33957055E-01 1.41427656E-01-0.00000000E+00-0.00000000E+00-0.00000000E+00
19  1-1.06405224E-03-5.27615045E-03-4.18680786E-03-0.00000000E+00-0.00000000E+00
19  2 2.37060169E-03-0.00000000E+00-0.00000000E+00-6.87914477E-03-3.49110539E-01
19  3-3.49110542E-01 7.11526934E-01-0.00000000E+00-0.00000000E+00-0.00000000E+00
19  4-1.06405224E-03-5.27615045E-03-4.18680786E-03-0.00000000E+00-0.00000000E+00
19  5-2.37060169E-03-0.00000000E+00-0.00000000E+00 6.87914477E-03-3.49110539E-01
19  6-3.49110542E-01 7.11526934E-01-0.00000000E+00-0.00000000E+00-0.00000000E+00
20  1-0.00000000E+00-0.00000000E+00-0.00000000E+00-0.00000000E+00 2.05210066E-04
20  2-0.00000000E+00-0.00000000E+00-9.68650480E-04-0.00000000E+00-0.00000000E+00
20  3-0.00000000E+00-0.00000000E+00-0.00000000E+00-0.00000000E+00 7.07106553E-01
20  4-0.00000000E+00-0.00000000E+00-0.00000000E+00-0.00000000E+00 2.05210066E-04
20  5-0.00000000E+00-0.00000000E+00-9.68650480E-04-0.00000000E+00-0.00000000E+00
20  6-0.00000000E+00-0.00000000E+00-0.00000000E+00-0.00000000E+00-7.07106553E-01
21  1-0.00000000E+00-0.00000000E+00-0.00000000E+00 2.05210066E-04-0.00000000E+00
21  2-0.00000000E+00-9.68650480E-04-0.00000000E+00-0.00000000E+00-0.00000000E+00
21  3-0.00000000E+00-0.00000000E+00-0.00000000E+00 7.07106553E-01-0.00000000E+00
21  4-0.00000000E+00-0.00000000E+00-0.00000000E+00 2.05210066E-04-0.00000000E+00
21  5-0.00000000E+00-9.68650480E-04-0.00000000E+00-0.00000000E+00-0.00000000E+00
21  6-0.00000000E+00-0.00000000E+00-0.00000000E+00-7.07106553E-01-0.00000000E+00
22  1 0.00000000E+00 0.00000000E+00 1.15272469E-11 0.00000000E+00 0.00000000E+00
22  2 0.00000000E+00 0.00000000E+00 0.00000000E+00 1.63806119E-11 6.12372437E-01
22  3-6.12372435E-01-1.87305948E-09 0.00000000E+00 0.00000000E+00 0.00000000E+00
22  4 0.00000000E+00 0.00000000E+00 1.15272469E-11 0.00000000E+00 0.00000000E+00
22  5 0.00000000E+00 0.00000000E+00 0.00000000E+00-1.63806119E-11 6.12372437E-01
22  6-6.12372435E-01-1.87305948E-09 0.00000000E+00 0.00000000E+00 0.00000000E+00
23  1 0.00000000E+00 0.00000000E+00 0.00000000E+00 0.00000000E+00 0.00000000E+00
23  2 0.00000000E+00 0.00000000E+00 0.00000000E+00 0.00000000E+00 0.00000000E+00
23  3 0.00000000E+00 0.00000000E+00 7.07106781E-01 0.00000000E+00 0.00000000E+00
23  4 0.00000000E+00 0.00000000E+00 0.00000000E+00 0.00000000E+00 0.00000000E+00
23  5 0.00000000E+00 0.00000000E+00 0.00000000E+00 0.00000000E+00 0.00000000E+00
23  6 0.00000000E+00 0.00000000E+00 7.07106781E-01 0.00000000E+00 0.00000000E+00
24  1 1.42292020E-11 3.76576035E-11-1.80107527E-11-0.00000000E+00-0.00000000E+00
24  2 2.41531059E-11-0.00000000E+00-0.00000000E+00-4.33839451E-11 6.12372437E-01
24  3-6.12372434E-01-3.57369127E-09-0.00000000E+00-0.00000000E+00-0.00000000E+00
24  4-1.42292020E-11-3.76576035E-11 1.80107527E-11-0.00000000E+00-0.00000000E+00
24  5 2.41531059E-11-0.00000000E+00-0.00000000E+00-4.33839451E-11-6.12372437E-01
24  6 6.12372434E-01 3.57369127E-09-0.00000000E+00-0.00000000E+00-0.00000000E+00
25  1-0.00000000E+00-0.00000000E+00-0.00000000E+00-0.00000000E+00-0.00000000E+00
25  2-0.00000000E+00-0.00000000E+00-0.00000000E+00-0.00000000E+00-0.00000000E+00
25  3-0.00000000E+00-0.00000000E+00 7.07106781E-01-0.00000000E+00-0.00000000E+00
25  4-0.00000000E+00-0.00000000E+00-0.00000000E+00-0.00000000E+00-0.00000000E+00
25  5-0.00000000E+00-0.00000000E+00-0.00000000E+00-0.00000000E+00-0.00000000E+00
25  6-0.00000000E+00-0.00000000E+00-7.07106781E-01-0.00000000E+00-0.00000000E+00
26  1 0.00000000E+00 0.00000000E+00 0.00000000E+00-1.07294569E-03 0.00000000E+00
26  2 0.00000000E+00 1.10302335E-03 0.00000000E+00 0.00000000E+00 0.00000000E+00
26  3 0.00000000E+00 0.00000000E+00 0.00000000E+00 7.07106314E-01 0.00000000E+00
26  4 0.00000000E+00 0.00000000E+00 0.00000000E+00 1.07294569E-03 0.00000000E+00
26  5 0.00000000E+00-1.10302335E-03 0.00000000E+00 0.00000000E+00 0.00000000E+00
26  6 0.00000000E+00 0.00000000E+00 0.00000000E+00 7.07106314E-01 0.00000000E+00
27  1 0.00000000E+00 0.00000000E+00 0.00000000E+00 0.00000000E+00-1.07294569E-03
27  2 0.00000000E+00 0.00000000E+00 1.10302335E-03 0.00000000E+00 0.00000000E+00
27  3 0.00000000E+00 0.00000000E+00 0.00000000E+00 0.00000000E+00 7.07106314E-01
27  4 0.00000000E+00 0.00000000E+00 0.00000000E+00 0.00000000E+00 1.07294569E-03
27  5 0.00000000E+00 0.00000000E+00-1.10302335E-03 0.00000000E+00 0.00000000E+00
27  6 0.00000000E+00 0.00000000E+00 0.00000000E+00 0.00000000E+00 7.07106314E-01
28  1-4.00971341E-03-1.24898182E-02 2.11453229E-03 0.00000000E+00 0.00000000E+00
28  2-4.86340137E-03 0.00000000E+00 0.00000000E+00 8.69208537E-03-3.48256943E-01
28  3-3.48256949E-01 7.12349953E-01 0.00000000E+00 0.00000000E+00 0.00000000E+00
28  4 4.00971341E-03 1.24898182E-02-2.11453229E-03 0.00000000E+00 0.00000000E+00
28  5-4.86340137E-03 0.00000000E+00 0.00000000E+00 8.69208537E-03 3.48256943E-01
28  6 3.48256949E-01-7.12349953E-01 0.00000000E+00 0.00000000E+00 0.00000000E+00
29  1 3.91126775E-01 1.46908537E+00 7.56771926E-01-0.00000000E+00-0.00000000E+00
29  2 8.26037003E-03-0.00000000E+00-0.00000000E+00-1.51938566E-02-9.78175938E-01
29  3-9.78175938E-01-9.73907552E-01-0.00000000E+00-0.00000000E+00-0.00000000E+00
29  4 3.91126775E-01 1.46908537E+00 7.56771926E-01-0.00000000E+00-0.00000000E+00
29  5-8.26037003E-03-0.00000000E+00-0.00000000E+00 1.51938566E-02-9.78175938E-01
29  6-9.78175938E-01-9.73907552E-01-0.00000000E+00-0.00000000E+00-0.00000000E+00
30  1 3.85606283E-01 1.46044151E+00 7.83429720E-01-0.00000000E+00-0.00000000E+00
30  2-1.05706417E-02-0.00000000E+00-0.00000000E+00 1.95498448E-02-9.85528935E-01
30  3-9.85528935E-01-9.78518750E-01-0.00000000E+00-0.00000000E+00-0.00000000E+00
30  4-3.85606283E-01-1.46044151E+00-7.83429720E-01-0.00000000E+00-0.00000000E+00
30  5-1.05706417E-02-0.00000000E+00-0.00000000E+00 1.95498448E-02 9.85528935E-01
30  6 9.85528935E-01 9.78518750E-01-0.00000000E+00-0.00000000E+00-0.00000000E+00
 $END   
