!    REFERENCE ENERGY:     -154.4448922569
!         CCSD ENERGY:     -155.1915348884   CORR. E=  -0.7466426314
!        ---- SUMMARY OF DIP-EOMCC CALCULATIONS ----
!                          DOUBLED
!            SPIN         IONIZATION             TOTAL
! STATE      MULT         ENERGY (H)           ENERGY (H)       ITERATIONS
!  1          3         -0.2600243145       -155.4515592029     CONVERGED
!  2          1         -0.2191853535       -155.4107202418     CONVERGED
!  3          1         -0.2191853511       -155.4107202395     CONVERGED
!  4          1         -0.1183687612       -155.3099036496     CONVERGED
!  5          3         -0.0621672142       -155.2537021026     CONVERGED
!
 $contrl runtyp=energy scftyp=rohf cctyp=dipeom2 $end
 $contrl UNITS=ANGS ISPHER=1 MULT=3  coord=prinaxis $end
 $system mwords=200 $end
 $scf RSTRCT=.true. $end
 $guess  guess=moread norb=86 $end
 $ccinp nfzv=0 ncore=4 $end
 $eominp MULT=-1 NOACT=3 NUACT=1 NACT=3 NSTATE=5 $end
 $eominp CVGEOM=1.0d-6 NREF=1 NSAVE=0 JREST=0 $end
 $basis  gbasis=CCD $end
 $data
TMM-2A11
Dnh 3

 C   6.0        0.00000000   -1.39250000   -0.00000000
 C   6.0        0.00000000    0.00000000   -0.00000000
 H   1.0       -0.91943104   -1.94932723    0.00000000
 H   1.0        0.91943104   -1.94932723   -0.00000000
 C   6.0        1.20594037    0.69625000   -0.00000000
 C   6.0       -1.20594037    0.69625000   -0.00000000
 H   1.0        1.22845138    1.77091426   -0.00000000
 H   1.0        2.14788243    0.17841298    0.00000000
 H   1.0       -1.22845138    1.77091426    0.00000000
 H   1.0       -2.14788243    0.17841298   -0.00000000
$END
 $VEC   
 1  1 2.25514965E-02-2.72938865E-04 1.86813741E-03 4.56532673E-05-7.90737784E-05
 1  2-0.00000000E+00-5.32668108E-04 9.22608227E-04-0.00000000E+00-1.14709283E-04
 1  3-2.20264386E-04 3.34973669E-04 1.05555103E-04-0.00000000E+00-0.00000000E+00
 1  4 2.25514965E-02-2.72938865E-04 1.86813741E-03 4.56532673E-05 7.90737784E-05
 1  5-0.00000000E+00-5.32668108E-04-9.22608227E-04-0.00000000E+00-1.14709283E-04
 1  6-2.20264386E-04 3.34973669E-04-1.05555103E-04-0.00000000E+00-0.00000000E+00
 1  7 2.25514965E-02-2.72938865E-04 1.86813741E-03-9.13065345E-05-0.00000000E+00
 1  8-0.00000000E+00 1.06533622E-03-0.00000000E+00-0.00000000E+00-2.73041938E-04
 1  9-6.19317312E-05 3.34973669E-04-0.00000000E+00-0.00000000E+00-0.00000000E+00
 1 10 1.00135971E+00 4.51110576E-03-9.99127891E-03-0.00000000E+00-0.00000000E+00
 1 11-0.00000000E+00-0.00000000E+00-0.00000000E+00-0.00000000E+00 2.96909548E-04
 1 12 2.96909548E-04-5.93819097E-04-0.00000000E+00-0.00000000E+00-0.00000000E+00
 1 13 2.03635680E-05 1.82724186E-04-1.15627495E-04-8.94799075E-07-0.00000000E+00
 1 14 2.03635680E-05 1.82724186E-04 5.85886660E-05-9.96889482E-05-0.00000000E+00
 1 15 2.03635680E-05 1.82724186E-04 5.70388286E-05-1.00583747E-04-0.00000000E+00
 1 16 2.03635680E-05 1.82724186E-04 5.85886660E-05 9.96889482E-05-0.00000000E+00
 1 17 2.03635680E-05 1.82724186E-04-1.15627495E-04 8.94799075E-07-0.00000000E+00
 1 18 2.03635680E-05 1.82724186E-04 5.70388286E-05 1.00583747E-04-0.00000000E+00
 2  1-7.08639326E-01-2.74541433E-03 6.17313230E-03-8.51754707E-05 1.31406279E-04
 2  2 0.00000000E+00-2.62248164E-04 6.91113247E-04 0.00000000E+00-2.29121438E-04
 2  3-1.44722450E-04 3.73843887E-04-2.26241595E-05 0.00000000E+00 0.00000000E+00
 2  4 7.08639326E-01 2.74541433E-03-6.17313230E-03 8.51754707E-05 1.31406279E-04
 2  5 0.00000000E+00 2.62248164E-04 6.91113247E-04 0.00000000E+00 2.29121438E-04
 2  6 1.44722450E-04-3.73843887E-04-2.26241595E-05 0.00000000E+00 0.00000000E+00
 2  7 0.00000000E+00 0.00000000E+00 0.00000000E+00 0.00000000E+00-1.61219639E-05
 2  8 0.00000000E+00 0.00000000E+00 2.36886103E-04 0.00000000E+00 0.00000000E+00
 2  9 0.00000000E+00 0.00000000E+00 6.17748286E-05 0.00000000E+00 0.00000000E+00
 2 10 0.00000000E+00 0.00000000E+00 0.00000000E+00 0.00000000E+00-4.56218990E-04
 2 11 0.00000000E+00 0.00000000E+00 1.36567311E-03 0.00000000E+00 0.00000000E+00
 2 12 0.00000000E+00 0.00000000E+00-1.08374446E-04 0.00000000E+00 0.00000000E+00
 2 13 3.85713671E-04-9.06963279E-04-3.90085293E-04-5.11655127E-05 0.00000000E+00
 2 14-3.87158466E-04 7.74393483E-04-2.10885759E-04 3.11221517E-04 0.00000000E+00
 2 15-1.44479469E-06-1.32569796E-04-1.33508471E-05-2.51633468E-05 0.00000000E+00
 2 16 3.87158466E-04-7.74393483E-04 2.10885759E-04 3.11221517E-04 0.00000000E+00
 2 17-3.85713671E-04 9.06963279E-04 3.90085293E-04-5.11655127E-05 0.00000000E+00
 2 18 1.44479469E-06 1.32569796E-04 1.33508471E-05-2.51633468E-05 0.00000000E+00
 3  1-4.09133106E-01-1.58506570E-03 3.56405959E-03-3.30541170E-05 8.51754707E-05
 3  2-0.00000000E+00-3.88295151E-04 2.62248164E-04-0.00000000E+00-7.87847529E-05
 3  3-1.37054116E-04 2.15838869E-04-4.87277785E-05-0.00000000E+00-0.00000000E+00
 3  4-4.09133106E-01-1.58506570E-03 3.56405959E-03-3.30541170E-05-8.51754707E-05
 3  5-0.00000000E+00-3.88295151E-04-2.62248164E-04-0.00000000E+00-7.87847529E-05
 3  6-1.37054116E-04 2.15838869E-04 4.87277785E-05-0.00000000E+00-0.00000000E+00
 3  7 8.18266211E-01 3.17013141E-03-7.12811919E-03-1.80582360E-04-0.00000000E+00
 3  8-0.00000000E+00-8.42522295E-04-0.00000000E+00-0.00000000E+00 1.71881883E-04
 3  9 2.59795855E-04-4.31677738E-04-0.00000000E+00-0.00000000E+00-0.00000000E+00
 3 10-0.00000000E+00-0.00000000E+00-0.00000000E+00 4.56218990E-04-0.00000000E+00
 3 11-0.00000000E+00-1.36567311E-03-0.00000000E+00-0.00000000E+00-9.38550236E-05
 3 12 9.38550236E-05-0.00000000E+00-0.00000000E+00-0.00000000E+00-0.00000000E+00
 3 13 2.24360197E-04-3.70557079E-04-2.07760617E-04-1.66151041E-06-0.00000000E+00
 3 14 2.21857739E-04-6.00174701E-04 1.54626412E-04-1.80861044E-04-0.00000000E+00
 3 15-4.46217937E-04 9.70731780E-04-1.81758451E-04 4.05097651E-04-0.00000000E+00
 3 16 2.21857739E-04-6.00174701E-04 1.54626412E-04 1.80861044E-04-0.00000000E+00
 3 17 2.24360197E-04-3.70557079E-04-2.07760617E-04 1.66151041E-06-0.00000000E+00
 3 18-4.46217937E-04 9.70731780E-04-1.81758451E-04-4.05097651E-04-0.00000000E+00
 4  1 5.78053813E-01 2.14930355E-03-3.42445611E-03-1.39614660E-05 2.41819685E-05
 4  2-0.00000000E+00-1.22775964E-04 2.12654208E-04-0.00000000E+00 2.71037587E-04
 4  3 3.00461257E-04-5.71498844E-04-2.94236695E-05-0.00000000E+00-0.00000000E+00
 4  4 5.78053813E-01 2.14930355E-03-3.42445611E-03-1.39614660E-05-2.41819685E-05
 4  5-0.00000000E+00-1.22775964E-04-2.12654208E-04-0.00000000E+00 2.71037587E-04
 4  6 3.00461257E-04-5.71498844E-04 2.94236695E-05-0.00000000E+00-0.00000000E+00
 4  7 5.78053813E-01 2.14930355E-03-3.42445611E-03 2.79229321E-05-0.00000000E+00
 4  8-0.00000000E+00 2.45551928E-04-0.00000000E+00-0.00000000E+00 3.15173091E-04
 4  9 2.56325752E-04-5.71498844E-04-0.00000000E+00-0.00000000E+00-0.00000000E+00
 4 10-3.99772266E-02-6.46209790E-04 6.56838024E-04-0.00000000E+00-0.00000000E+00
 4 11-0.00000000E+00-0.00000000E+00-0.00000000E+00-0.00000000E+00-3.72515320E-04
 4 12-3.72515320E-04 7.45030640E-04-0.00000000E+00-0.00000000E+00-0.00000000E+00
 4 13-4.66944500E-04 7.06177009E-04 3.66677929E-04 4.57140325E-06-0.00000000E+00
 4 14-4.66944500E-04 7.06177009E-04-1.87297916E-04 3.15266700E-04-0.00000000E+00
 4 15-4.66944500E-04 7.06177009E-04-1.79380013E-04 3.19838103E-04-0.00000000E+00
 4 16-4.66944500E-04 7.06177009E-04-1.87297916E-04-3.15266700E-04-0.00000000E+00
 4 17-4.66944500E-04 7.06177009E-04 3.66677929E-04-4.57140325E-06-0.00000000E+00
 4 18-4.66944500E-04 7.06177009E-04-1.79380013E-04-3.19838103E-04-0.00000000E+00
 5  1-1.11592709E-02 1.73114120E-01 7.82769361E-02-4.90590497E-02 8.49727666E-02
 5  2 0.00000000E+00-4.65748456E-03 8.06699989E-03 0.00000000E+00-3.55856107E-03
 5  3 9.14082625E-03-5.58226518E-03-1.26993873E-02 0.00000000E+00 0.00000000E+00
 5  4-1.11592709E-02 1.73114120E-01 7.82769361E-02-4.90590497E-02-8.49727666E-02
 5  5 0.00000000E+00-4.65748456E-03-8.06699989E-03 0.00000000E+00-3.55856107E-03
 5  6 9.14082625E-03-5.58226518E-03 1.26993873E-02 0.00000000E+00 0.00000000E+00
 5  7-1.11592709E-02 1.73114120E-01 7.82769361E-02 9.81180993E-02 0.00000000E+00
 5  8 0.00000000E+00 9.31496912E-03 0.00000000E+00 0.00000000E+00 1.54905199E-02
 5  9-9.90825473E-03-5.58226518E-03 0.00000000E+00 0.00000000E+00 0.00000000E+00
 5 10-2.46026519E-02 3.21825888E-01 2.56954348E-01 0.00000000E+00 0.00000000E+00
 5 11 0.00000000E+00 0.00000000E+00 0.00000000E+00 0.00000000E+00 1.02616736E-02
 5 12 1.02616736E-02-2.05233472E-02 0.00000000E+00 0.00000000E+00 0.00000000E+00
 5 13 5.32461952E-02 2.00695261E-04-9.62226140E-03 2.58592884E-03 0.00000000E+00
 5 14 5.32461952E-02 2.00695261E-04 2.57165063E-03-9.62608723E-03 0.00000000E+00
 5 15 5.32461952E-02 2.00695261E-04 7.05061076E-03-7.04015839E-03 0.00000000E+00
 5 16 5.32461952E-02 2.00695261E-04 2.57165063E-03 9.62608723E-03 0.00000000E+00
 5 17 5.32461952E-02 2.00695261E-04-9.62226140E-03-2.58592884E-03 0.00000000E+00
 5 18 5.32461952E-02 2.00695261E-04 7.05061076E-03 7.04015839E-03 0.00000000E+00
 6  1 9.34902222E-03-1.56922200E-01-8.48996908E-02-4.05420374E-02-3.31693753E-02
 6  2-0.00000000E+00 2.86403568E-03 1.53688854E-02-0.00000000E+00 4.44236722E-03
 6  3-7.02119791E-03 2.57883068E-03-1.62901473E-03-0.00000000E+00-0.00000000E+00
 6  4 9.34902222E-03-1.56922200E-01-8.48996908E-02-4.05420374E-02 3.31693753E-02
 6  5-0.00000000E+00 2.86403568E-03-1.53688854E-02-0.00000000E+00 4.44236722E-03
 6  6-7.02119791E-03 2.57883068E-03 1.62901473E-03-0.00000000E+00-0.00000000E+00
 6  7-1.86980444E-02 3.13844400E-01 1.69799382E-01 1.69090058E-02-0.00000000E+00
 6  8-0.00000000E+00-2.37556546E-02-0.00000000E+00-0.00000000E+00 5.86709116E-03
 6  9-7.09429794E-04-5.15766136E-03-0.00000000E+00-0.00000000E+00-0.00000000E+00
 6 10-0.00000000E+00-0.00000000E+00-0.00000000E+00-2.27365141E-01-0.00000000E+00
 6 11-0.00000000E+00-1.35585545E-01-0.00000000E+00-0.00000000E+00 2.13107795E-02
 6 12-2.13107795E-02-0.00000000E+00-0.00000000E+00-0.00000000E+00-0.00000000E+00
 6 13-1.13365696E-01-2.22528684E-02 1.39875573E-02-2.94258863E-04-0.00000000E+00
 6 14-4.96182480E-02 4.95033524E-03-3.79996054E-03 7.36364749E-03-0.00000000E+00
 6 15 1.62983944E-01 1.73025332E-02 1.17257398E-02-1.89391366E-02-0.00000000E+00
 6 16-4.96182480E-02 4.95033524E-03-3.79996054E-03-7.36364749E-03-0.00000000E+00
 6 17-1.13365696E-01-2.22528684E-02 1.39875573E-02 2.94258863E-04-0.00000000E+00
 6 18 1.62983944E-01 1.73025332E-02 1.17257398E-02 1.89391366E-02-0.00000000E+00
 7  1 1.61929815E-02-2.71797223E-01-1.47050578E-01 3.31693753E-02 2.24134190E-03
 7  2 0.00000000E+00-1.53688854E-02 1.48824245E-02 0.00000000E+00-3.64410102E-03
 7  3-8.22564745E-04 4.46666576E-03 4.73746823E-03 0.00000000E+00 0.00000000E+00
 7  4-1.61929815E-02 2.71797223E-01 1.47050578E-01-3.31693753E-02 2.24134190E-03
 7  5 0.00000000E+00 1.53688854E-02 1.48824245E-02 0.00000000E+00 3.64410102E-03
 7  6 8.22564745E-04-4.46666576E-03 4.73746823E-03 0.00000000E+00 0.00000000E+00
 7  7 0.00000000E+00 0.00000000E+00 0.00000000E+00 0.00000000E+00 5.96923851E-02
 7  8 0.00000000E+00 0.00000000E+00-1.17372658E-02 0.00000000E+00 0.00000000E+00
 7  9 0.00000000E+00 0.00000000E+00 7.55900450E-03 0.00000000E+00 0.00000000E+00
 7 10 0.00000000E+00 0.00000000E+00 0.00000000E+00 0.00000000E+00 2.27365141E-01
 7 11 0.00000000E+00 0.00000000E+00 1.35585545E-01 0.00000000E+00 0.00000000E+00
 7 12 0.00000000E+00 0.00000000E+00 2.46075686E-02 0.00000000E+00 0.00000000E+00
 7 13-1.22745932E-01-7.13154481E-03 1.76332757E-02-6.21333757E-04 0.00000000E+00
 7 14 1.59550539E-01 2.28373218E-02 9.97536934E-03-1.84088516E-02 0.00000000E+00
 7 15 3.68046060E-02 1.57057770E-02 1.60011979E-03-2.88315123E-03 0.00000000E+00
 7 16-1.59550539E-01-2.28373218E-02-9.97536934E-03-1.84088516E-02 0.00000000E+00
 7 17 1.22745932E-01 7.13154481E-03-1.76332757E-02-6.21333757E-04 0.00000000E+00
 7 18-3.68046060E-02-1.57057770E-02-1.60011979E-03-2.88315123E-03 0.00000000E+00
 8  1 8.82669046E-03-1.11923250E-01-1.05581693E-01-1.01879357E-01 1.76460222E-01
 8  2-0.00000000E+00-3.11119470E-02 5.38874729E-02-0.00000000E+00-6.55137138E-03
 8  3 7.64423198E-03-1.09286060E-03-1.41956034E-02-0.00000000E+00-0.00000000E+00
 8  4 8.82669046E-03-1.11923250E-01-1.05581693E-01-1.01879357E-01-1.76460222E-01
 8  5-0.00000000E+00-3.11119470E-02-5.38874729E-02-0.00000000E+00-6.55137138E-03
 8  6 7.64423198E-03-1.09286060E-03 1.41956034E-02-0.00000000E+00-0.00000000E+00
 8  7 8.82669046E-03-1.11923250E-01-1.05581693E-01 2.03758713E-01-0.00000000E+00
 8  8-0.00000000E+00 6.22238940E-02-0.00000000E+00-0.00000000E+00 1.47420337E-02
 8  9-1.36491731E-02-1.09286060E-03-0.00000000E+00-0.00000000E+00-0.00000000E+00
 8 10-3.91806292E-03 2.18331734E-01 1.64397634E-01-0.00000000E+00-0.00000000E+00
 8 11-0.00000000E+00-0.00000000E+00-0.00000000E+00-0.00000000E+00 7.77158423E-05
 8 12 7.77158423E-05-1.55431685E-04-0.00000000E+00-0.00000000E+00-0.00000000E+00
 8 13-1.52835917E-01-4.08948289E-02 1.49693105E-02 3.75149042E-03-0.00000000E+00
 8 14-1.52835917E-01-4.08948289E-02-1.07335413E-02 1.10880580E-02-0.00000000E+00
 8 15-1.52835917E-01-4.08948289E-02-4.23576925E-03 1.48395484E-02-0.00000000E+00
 8 16-1.52835917E-01-4.08948289E-02-1.07335413E-02-1.10880580E-02-0.00000000E+00
 8 17-1.52835917E-01-4.08948289E-02 1.49693105E-02-3.75149042E-03-0.00000000E+00
 8 18-1.52835917E-01-4.08948289E-02-4.23576925E-03-1.48395484E-02-0.00000000E+00
 9  1 6.44519566E-04-5.65930073E-02-9.64638080E-02 3.73970765E-02-2.82346170E-01
 9  2 0.00000000E+00 2.78403342E-02-1.32623876E-01 0.00000000E+00-5.99785094E-03
 9  3 5.62314225E-03 3.74708694E-04 2.13472728E-02 0.00000000E+00 0.00000000E+00
 9  4-6.44519566E-04 5.65930073E-02 9.64638080E-02-3.73970765E-02-2.82346170E-01
 9  5 0.00000000E+00-2.78403342E-02-1.32623876E-01 0.00000000E+00 5.99785094E-03
 9  6-5.62314225E-03-3.74708694E-04 2.13472728E-02 0.00000000E+00 0.00000000E+00
 9  7 0.00000000E+00 0.00000000E+00 0.00000000E+00 0.00000000E+00-2.17572534E-01
 9  8 0.00000000E+00 0.00000000E+00-8.44030028E-02 0.00000000E+00 0.00000000E+00
 9  9 0.00000000E+00 0.00000000E+00 3.29682660E-02 0.00000000E+00 0.00000000E+00
 9 10 0.00000000E+00 0.00000000E+00 0.00000000E+00 0.00000000E+00 3.18020761E-01
 9 11 0.00000000E+00 0.00000000E+00 6.13119226E-02 0.00000000E+00 0.00000000E+00
 9 12 0.00000000E+00 0.00000000E+00 4.14993227E-02 0.00000000E+00 0.00000000E+00
 9 13-1.17676351E-03-6.32261421E-03-3.17986532E-04-8.46261563E-03 0.00000000E+00
 9 14-1.83690645E-01-8.68195210E-02-5.89703001E-03 6.14556038E-03 0.00000000E+00
 9 15-1.84867409E-01-9.31421352E-02-9.54354326E-03 3.67306575E-03 0.00000000E+00
 9 16 1.83690645E-01 8.68195210E-02 5.89703001E-03 6.14556038E-03 0.00000000E+00
 9 17 1.17676351E-03 6.32261421E-03 3.17986532E-04-8.46261563E-03 0.00000000E+00
 9 18 1.84867409E-01 9.31421352E-02 9.54354326E-03 3.67306575E-03 0.00000000E+00
10  1-3.72113545E-04 3.26739880E-02 5.56934055E-02-2.39163746E-01 3.73970765E-02
10  2 0.00000000E+00-1.00476627E-01 2.78403342E-02 0.00000000E+00-2.50884950E-02
10  3 2.53048332E-02-2.16338165E-04 6.70938355E-03 0.00000000E+00 0.00000000E+00
10  4-3.72113545E-04 3.26739880E-02 5.56934055E-02-2.39163746E-01-3.73970765E-02
10  5 0.00000000E+00-1.00476627E-01-2.78403342E-02 0.00000000E+00-2.50884950E-02
10  6 2.53048332E-02-2.16338165E-04-6.70938355E-03 0.00000000E+00 0.00000000E+00
10  7 7.44227090E-04-6.53479760E-02-1.11386811E-01-3.03937382E-01 0.00000000E+00
10  8 0.00000000E+00-1.48697501E-01 0.00000000E+00 0.00000000E+00-1.53489270E-02
10  9 1.49162506E-02 4.32676331E-04 0.00000000E+00 0.00000000E+00 0.00000000E+00
10 10 0.00000000E+00 0.00000000E+00 0.00000000E+00 3.18020761E-01 0.00000000E+00
10 11 0.00000000E+00 6.13119226E-02 0.00000000E+00 0.00000000E+00-3.59394677E-02
10 12 3.59394677E-02 0.00000000E+00 0.00000000E+00 0.00000000E+00 0.00000000E+00
10 13-2.12787092E-01-1.03900911E-01 9.36662263E-03-2.53700434E-03 0.00000000E+00
10 14 1.07412653E-01 5.74259999E-02-5.24155338E-03-8.11604782E-03 0.00000000E+00
10 15 1.05374439E-01 4.64749108E-02-2.76905875E-03-7.32452545E-03 0.00000000E+00
10 16 1.07412653E-01 5.74259999E-02-5.24155338E-03 8.11604782E-03 0.00000000E+00
10 17-2.12787092E-01-1.03900911E-01 9.36662263E-03 2.53700434E-03 0.00000000E+00
10 18 1.05374439E-01 4.64749108E-02-2.76905875E-03 7.32452545E-03 0.00000000E+00
11  1-5.25950299E-03 4.19303979E-02 7.52753127E-02 2.13179467E-01-1.07028602E-01
11  2 0.00000000E+00 7.10155301E-02-3.76571516E-02 0.00000000E+00 5.55833339E-03
11  3-7.65994139E-03 2.10160800E-03 9.47816095E-03 0.00000000E+00 0.00000000E+00
11  4 5.25950299E-03-4.19303979E-02-7.52753127E-02-2.13179467E-01-1.07028602E-01
11  5 0.00000000E+00-7.10155301E-02-3.76571516E-02 0.00000000E+00-5.55833339E-03
11  6 7.65994139E-03-2.10160800E-03 9.47816095E-03 0.00000000E+00 0.00000000E+00
11  7 0.00000000E+00 0.00000000E+00 0.00000000E+00 0.00000000E+00 2.62209066E-01
11  8 0.00000000E+00 0.00000000E+00 8.53453547E-02 0.00000000E+00 0.00000000E+00
11  9 0.00000000E+00 0.00000000E+00-3.74011382E-03 0.00000000E+00 0.00000000E+00
11 10 0.00000000E+00 0.00000000E+00 0.00000000E+00 0.00000000E+00 2.33234625E-01
11 11 0.00000000E+00 0.00000000E+00 1.07391943E-01 0.00000000E+00 0.00000000E+00
11 12 0.00000000E+00 0.00000000E+00-1.05467607E-02 0.00000000E+00 0.00000000E+00
11 13 2.02114388E-01 6.04895677E-02-1.55712378E-02-2.64465212E-03 0.00000000E+00
11 14-2.05138391E-02-2.54661529E-03-7.22569121E-03-1.72196771E-04 0.00000000E+00
11 15 1.81600549E-01 5.79429524E-02 9.25725537E-03-8.63587980E-03 0.00000000E+00
11 16 2.05138391E-02 2.54661529E-03 7.22569121E-03-1.72196771E-04 0.00000000E+00
11 17-2.02114388E-01-6.04895677E-02 1.55712378E-02-2.64465212E-03 0.00000000E+00
11 18-1.81600549E-01-5.79429524E-02-9.25725537E-03-8.63587980E-03 0.00000000E+00
12  1 3.03657547E-03-2.42085265E-02-4.34602220E-02 1.39129843E-01 2.13179467E-01
12  2 0.00000000E+00 4.43445193E-02 7.10155301E-02 0.00000000E+00 2.99283063E-05
12  3 1.18343564E-03-1.21336394E-03-7.63157450E-03 0.00000000E+00 0.00000000E+00
12  4 3.03657547E-03-2.42085265E-02-4.34602220E-02 1.39129843E-01-2.13179467E-01
12  5 0.00000000E+00 4.43445193E-02-7.10155301E-02 0.00000000E+00 2.99283063E-05
12  6 1.18343564E-03-1.21336394E-03 7.63157450E-03 0.00000000E+00 0.00000000E+00
12  7-6.07315093E-03 4.84170530E-02 8.69204441E-02-2.30107824E-01 0.00000000E+00
12  8 0.00000000E+00-7.86579870E-02 0.00000000E+00 0.00000000E+00-1.32374794E-02
12  9 1.08107515E-02 2.42672789E-03 0.00000000E+00 0.00000000E+00 0.00000000E+00
12 10 0.00000000E+00 0.00000000E+00 0.00000000E+00 2.33234625E-01 0.00000000E+00
12 11 0.00000000E+00 1.07391943E-01 0.00000000E+00 0.00000000E+00 9.13376268E-03
12 12-9.13376268E-03 0.00000000E+00 0.00000000E+00 0.00000000E+00 0.00000000E+00
12 13 9.30034556E-02 3.19830901E-02-4.99050034E-03 5.79821845E-03 0.00000000E+00
12 14-2.21537923E-01-6.83770474E-02-7.46295569E-03 1.41437650E-02 0.00000000E+00
12 15 1.28534467E-01 3.63939572E-02 1.00072734E-03-1.21122009E-02 0.00000000E+00
12 16-2.21537923E-01-6.83770474E-02-7.46295569E-03-1.41437650E-02 0.00000000E+00
12 17 9.30034556E-02 3.19830901E-02-4.99050034E-03-5.79821845E-03 0.00000000E+00
12 18 1.28534467E-01 3.63939572E-02 1.00072734E-03 1.21122009E-02 0.00000000E+00
13  1 0.00000000E+00 0.00000000E+00 0.00000000E+00-2.24831651E-01-1.29806614E-01
13  2 0.00000000E+00-8.82188558E-02-5.09331801E-02 0.00000000E+00-1.03155871E-02
13  3 1.03155871E-02 0.00000000E+00 6.87705809E-03 0.00000000E+00 0.00000000E+00
13  4 0.00000000E+00 0.00000000E+00 0.00000000E+00 2.24831651E-01-1.29806614E-01
13  5 0.00000000E+00 8.82188558E-02-5.09331801E-02 0.00000000E+00 1.03155871E-02
13  6-1.03155871E-02 0.00000000E+00 6.87705809E-03 0.00000000E+00 0.00000000E+00
13  7 0.00000000E+00 0.00000000E+00 0.00000000E+00 0.00000000E+00 2.59613228E-01
13  8 0.00000000E+00 0.00000000E+00 1.01866360E-01 0.00000000E+00 0.00000000E+00
13  9 0.00000000E+00 0.00000000E+00-1.37541162E-02 0.00000000E+00 0.00000000E+00
13 10 0.00000000E+00 0.00000000E+00 0.00000000E+00 0.00000000E+00 0.00000000E+00
13 11 0.00000000E+00 0.00000000E+00 0.00000000E+00 0.00000000E+00 0.00000000E+00
13 12 0.00000000E+00 0.00000000E+00 0.00000000E+00 0.00000000E+00 0.00000000E+00
13 13-2.01796764E-01-8.31936344E-02 1.26891156E-02-4.00461466E-03 0.00000000E+00
13 14-2.01796764E-01-8.31936344E-02-2.87645976E-03 1.29914038E-02 0.00000000E+00
13 15 2.01796764E-01 8.31936344E-02 9.81265580E-03-8.98678910E-03 0.00000000E+00
13 16 2.01796764E-01 8.31936344E-02 2.87645976E-03 1.29914038E-02 0.00000000E+00
13 17 2.01796764E-01 8.31936344E-02-1.26891156E-02-4.00461466E-03 0.00000000E+00
13 18-2.01796764E-01-8.31936344E-02-9.81265580E-03-8.98678910E-03 0.00000000E+00
14  1 0.00000000E+00 0.00000000E+00 0.00000000E+00 0.00000000E+00 0.00000000E+00
14  2 2.16555988E-01 0.00000000E+00 0.00000000E+00 1.45292817E-01 0.00000000E+00
14  3 0.00000000E+00 0.00000000E+00 0.00000000E+00-1.21871149E-02 2.11087021E-02
14  4 0.00000000E+00 0.00000000E+00 0.00000000E+00 0.00000000E+00 0.00000000E+00
14  5 2.16555988E-01 0.00000000E+00 0.00000000E+00 1.45292817E-01 0.00000000E+00
14  6 0.00000000E+00 0.00000000E+00 0.00000000E+00-1.21871149E-02-2.11087021E-02
14  7 0.00000000E+00 0.00000000E+00 0.00000000E+00 0.00000000E+00 0.00000000E+00
14  8 2.16555988E-01 0.00000000E+00 0.00000000E+00 1.45292817E-01 0.00000000E+00
14  9 0.00000000E+00 0.00000000E+00 0.00000000E+00 2.43742297E-02 0.00000000E+00
14 10 0.00000000E+00 0.00000000E+00 0.00000000E+00 0.00000000E+00 0.00000000E+00
14 11 3.76935602E-01 0.00000000E+00 0.00000000E+00 2.39057640E-01 0.00000000E+00
14 12 0.00000000E+00 0.00000000E+00 0.00000000E+00 0.00000000E+00 0.00000000E+00
14 13 0.00000000E+00 0.00000000E+00 0.00000000E+00 0.00000000E+00 7.89151238E-03
14 14 0.00000000E+00 0.00000000E+00 0.00000000E+00 0.00000000E+00 7.89151238E-03
14 15 0.00000000E+00 0.00000000E+00 0.00000000E+00 0.00000000E+00 7.89151238E-03
14 16 0.00000000E+00 0.00000000E+00 0.00000000E+00 0.00000000E+00 7.89151238E-03
14 17 0.00000000E+00 0.00000000E+00 0.00000000E+00 0.00000000E+00 7.89151238E-03
14 18 0.00000000E+00 0.00000000E+00 0.00000000E+00 0.00000000E+00 7.89151238E-03
15  1 0.00000000E+00 0.00000000E+00 0.00000000E+00 0.00000000E+00 0.00000000E+00
15  2-4.24270463E-01 0.00000000E+00 0.00000000E+00-3.97882552E-01 0.00000000E+00
15  3 0.00000000E+00 0.00000000E+00 0.00000000E+00 4.02082405E-03-3.79544838E-03
15  4 0.00000000E+00 0.00000000E+00 0.00000000E+00 0.00000000E+00 0.00000000E+00
15  5 4.24270463E-01 0.00000000E+00 0.00000000E+00 3.97882552E-01 0.00000000E+00
15  6 0.00000000E+00 0.00000000E+00 0.00000000E+00-4.02082405E-03-3.79544838E-03
15  7 0.00000000E+00 0.00000000E+00 0.00000000E+00 0.00000000E+00 0.00000000E+00
15  8 0.00000000E+00 0.00000000E+00 0.00000000E+00 0.00000000E+00 0.00000000E+00
15  9 0.00000000E+00 0.00000000E+00 0.00000000E+00 0.00000000E+00 3.16882316E-03
15 10 0.00000000E+00 0.00000000E+00 0.00000000E+00 0.00000000E+00 0.00000000E+00
15 11 0.00000000E+00 0.00000000E+00 0.00000000E+00 0.00000000E+00 0.00000000E+00
15 12 0.00000000E+00 0.00000000E+00 0.00000000E+00 0.00000000E+00 4.69870001E-02
15 13 0.00000000E+00 0.00000000E+00 0.00000000E+00 0.00000000E+00-1.42822712E-02
15 14 0.00000000E+00 0.00000000E+00 0.00000000E+00 0.00000000E+00 1.52359531E-02
15 15 0.00000000E+00 0.00000000E+00 0.00000000E+00 0.00000000E+00 9.53681828E-04
15 16 0.00000000E+00 0.00000000E+00 0.00000000E+00 0.00000000E+00-1.52359531E-02
15 17 0.00000000E+00 0.00000000E+00 0.00000000E+00 0.00000000E+00 1.42822712E-02
15 18 0.00000000E+00 0.00000000E+00 0.00000000E+00 0.00000000E+00-9.53681828E-04
16  1 0.00000000E+00 0.00000000E+00 0.00000000E+00 0.00000000E+00 0.00000000E+00
16  2-2.44952666E-01 0.00000000E+00 0.00000000E+00-2.29717599E-01 0.00000000E+00
16  3 0.00000000E+00 0.00000000E+00 0.00000000E+00-8.47399314E-04-4.02082405E-03
16  4 0.00000000E+00 0.00000000E+00 0.00000000E+00 0.00000000E+00 0.00000000E+00
16  5-2.44952666E-01 0.00000000E+00 0.00000000E+00-2.29717599E-01 0.00000000E+00
16  6 0.00000000E+00 0.00000000E+00 0.00000000E+00-8.47399314E-04 4.02082405E-03
16  7 0.00000000E+00 0.00000000E+00 0.00000000E+00 0.00000000E+00 0.00000000E+00
16  8 4.89905332E-01 0.00000000E+00 0.00000000E+00 4.59435197E-01 0.00000000E+00
16  9 0.00000000E+00 0.00000000E+00 0.00000000E+00 6.11687222E-03 0.00000000E+00
16 10 0.00000000E+00 0.00000000E+00 0.00000000E+00 0.00000000E+00 0.00000000E+00
16 11 0.00000000E+00 0.00000000E+00 0.00000000E+00 0.00000000E+00 0.00000000E+00
16 12 0.00000000E+00 0.00000000E+00 0.00000000E+00-4.69870001E-02 0.00000000E+00
16 13 0.00000000E+00 0.00000000E+00 0.00000000E+00 0.00000000E+00-9.34709006E-03
16 14 0.00000000E+00 0.00000000E+00 0.00000000E+00 0.00000000E+00-7.69526468E-03
16 15 0.00000000E+00 0.00000000E+00 0.00000000E+00 0.00000000E+00 1.70423547E-02
16 16 0.00000000E+00 0.00000000E+00 0.00000000E+00 0.00000000E+00-7.69526468E-03
16 17 0.00000000E+00 0.00000000E+00 0.00000000E+00 0.00000000E+00-9.34709006E-03
16 18 0.00000000E+00 0.00000000E+00 0.00000000E+00 0.00000000E+00 1.70423547E-02
17  1-0.00000000E+00-0.00000000E+00-0.00000000E+00-0.00000000E+00-0.00000000E+00
17  2-2.40237830E-01-0.00000000E+00-0.00000000E+00-5.24000464E-01-0.00000000E+00
17  3-0.00000000E+00-0.00000000E+00-0.00000000E+00-2.16919362E-02 3.75715356E-02
17  4-0.00000000E+00-0.00000000E+00-0.00000000E+00-0.00000000E+00-0.00000000E+00
17  5-2.40237830E-01-0.00000000E+00-0.00000000E+00-5.24000464E-01-0.00000000E+00
17  6-0.00000000E+00-0.00000000E+00-0.00000000E+00-2.16919362E-02-3.75715356E-02
17  7-0.00000000E+00-0.00000000E+00-0.00000000E+00-0.00000000E+00-0.00000000E+00
17  8-2.40237830E-01-0.00000000E+00-0.00000000E+00-5.24000464E-01-0.00000000E+00
17  9-0.00000000E+00-0.00000000E+00-0.00000000E+00 4.33838724E-02-0.00000000E+00
17 10-0.00000000E+00-0.00000000E+00-0.00000000E+00-0.00000000E+00-0.00000000E+00
17 11 4.42973663E-01-0.00000000E+00-0.00000000E+00 1.00946654E+00-0.00000000E+00
17 12-0.00000000E+00-0.00000000E+00-0.00000000E+00-0.00000000E+00-0.00000000E+00
17 13-0.00000000E+00-0.00000000E+00-0.00000000E+00-0.00000000E+00-1.22644151E-02
17 14-0.00000000E+00-0.00000000E+00-0.00000000E+00-0.00000000E+00-1.22644151E-02
17 15-0.00000000E+00-0.00000000E+00-0.00000000E+00-0.00000000E+00-1.22644151E-02
17 16-0.00000000E+00-0.00000000E+00-0.00000000E+00-0.00000000E+00-1.22644151E-02
17 17-0.00000000E+00-0.00000000E+00-0.00000000E+00-0.00000000E+00-1.22644151E-02
17 18-0.00000000E+00-0.00000000E+00-0.00000000E+00-0.00000000E+00-1.22644151E-02
18  1-2.33234441E-02-9.14333452E-02-1.47859513E-01 5.28202634E-02-1.65430860E-01
18  2-0.00000000E+00-1.60984628E-02 1.07458167E-02-0.00000000E+00-7.08686327E-02
18  3 1.15322043E-01-4.44534102E-02 7.83026389E-02-0.00000000E+00-0.00000000E+00
18  4-2.33234441E-02-9.14333452E-02-1.47859513E-01 5.28202634E-02 1.65430860E-01
18  5-0.00000000E+00-1.60984628E-02-1.07458167E-02-0.00000000E+00-7.08686327E-02
18  6 1.15322043E-01-4.44534102E-02-7.83026389E-02-0.00000000E+00-0.00000000E+00
18  7 4.66468882E-02 1.82866690E-01 2.95719026E-01 3.39354918E-01-0.00000000E+00
18  8-0.00000000E+00-3.47107633E-02-0.00000000E+00-0.00000000E+00-2.00947897E-02
18  9-6.88120307E-02 8.89068205E-02-0.00000000E+00-0.00000000E+00-0.00000000E+00
18 10-0.00000000E+00-0.00000000E+00-0.00000000E+00-8.64600075E-04-0.00000000E+00
18 11-0.00000000E+00 8.12267404E-01-0.00000000E+00-0.00000000E+00 1.08952090E-01
18 12-1.08952090E-01-0.00000000E+00-0.00000000E+00-0.00000000E+00-0.00000000E+00
18 13-2.43505019E-01 2.10106318E-01-2.97265180E-02 4.31166439E-02-0.00000000E+00
18 14 4.56427346E-01-5.28364763E-01-5.86992546E-04 6.31901182E-02-0.00000000E+00
18 15-2.12922327E-01 3.18258445E-01 2.22738342E-03-2.79178118E-02-0.00000000E+00
18 16 4.56427346E-01-5.28364763E-01-5.86992546E-04-6.31901182E-02-0.00000000E+00
18 17-2.43505019E-01 2.10106318E-01-2.97265180E-02-4.31166439E-02-0.00000000E+00
18 18-2.12922327E-01 3.18258445E-01 2.22738342E-03 2.79178118E-02-0.00000000E+00
19  1 3.55308957E-02-8.33707064E-02-1.07758033E+00-9.12710492E-02 1.14593244E-02
19  2 0.00000000E+00-4.94499905E-01 7.55475426E-02 0.00000000E+00 4.60218491E-03
19  3 2.47852617E-03-7.08071108E-03-1.65923880E-02 0.00000000E+00 0.00000000E+00
19  4-3.55308957E-02 8.33707064E-02 1.07758033E+00 9.12710492E-02 1.14593244E-02
19  5 0.00000000E+00 4.94499905E-01 7.55475426E-02 0.00000000E+00-4.60218491E-03
19  6-2.47852617E-03 7.08071108E-03-1.65923880E-02 0.00000000E+00 0.00000000E+00
19  7 0.00000000E+00 0.00000000E+00 0.00000000E+00 0.00000000E+00-1.46626770E-01
19  8 0.00000000E+00 0.00000000E+00-7.80951416E-01 0.00000000E+00 0.00000000E+00
19  9 0.00000000E+00 0.00000000E+00-1.87160467E-02 0.00000000E+00 0.00000000E+00
19 10 0.00000000E+00 0.00000000E+00 0.00000000E+00 0.00000000E+00-1.26565577E-01
19 11 0.00000000E+00 0.00000000E+00 1.69026905E-01 0.00000000E+00 0.00000000E+00
19 12 0.00000000E+00 0.00000000E+00 3.04091514E-02 0.00000000E+00 0.00000000E+00
19 13 4.25090838E-02 1.37256070E+00-1.30957878E-02-7.53953728E-03 0.00000000E+00
19 14 1.65074941E-02-3.23551181E-01-6.05972211E-03 2.92503648E-03 0.00000000E+00
19 15 5.90165780E-02 1.04900952E+00 5.15168232E-04-8.40066203E-03 0.00000000E+00
19 16-1.65074941E-02 3.23551181E-01 6.05972211E-03 2.92503648E-03 0.00000000E+00
19 17-4.25090838E-02-1.37256070E+00 1.30957878E-02-7.53953728E-03 0.00000000E+00
19 18-5.90165780E-02-1.04900952E+00-5.15168232E-04-8.40066203E-03 0.00000000E+00
20  1-0.00000000E+00-0.00000000E+00-0.00000000E+00 3.90070174E-01 2.25207120E-01
20  2-0.00000000E+00-9.40834166E-01-5.43190859E-01-0.00000000E+00-1.56685428E-01
20  3 1.56685428E-01-0.00000000E+00 1.04456952E-01-0.00000000E+00-0.00000000E+00
20  4-0.00000000E+00-0.00000000E+00-0.00000000E+00-3.90070174E-01 2.25207120E-01
20  5-0.00000000E+00 9.40834166E-01-5.43190859E-01-0.00000000E+00 1.56685428E-01
20  6-1.56685428E-01-0.00000000E+00 1.04456952E-01-0.00000000E+00-0.00000000E+00
20  7-0.00000000E+00-0.00000000E+00-0.00000000E+00-0.00000000E+00-4.50414240E-01
20  8-0.00000000E+00-0.00000000E+00 1.08638172E+00-0.00000000E+00-0.00000000E+00