!     REFERENCE ENERGY:     -154.1487296460
!          CCSD ENERGY:     -154.6476053506   CORR. E=  -0.4988757046
!        ---- SUMMARY OF DEA-EOMCC CALCULATIONS ----
!                      DOUBLY ELECTRON
!            SPIN         ATTACHMENT             TOTAL
! STATE      MULT         ENERGY (H)           ENERGY (H)       ITERATIONS
!  1          3         -0.7824235700       -155.4300289206     CONVERGED
!  2          1         -0.7341033357       -155.3817086864     CONVERGED
!  3          1         -0.7341033358       -155.3817086864     CONVERGED
!  4          1         -0.6325135189       -155.2801188695     CONVERGED
!  5          3         -0.5488352001       -155.1964405508     CONVERGED
!
 $contrl runtyp=energy scftyp=rohf cctyp=deaeom2a $end
 $contrl UNITS=ANGS icharg=2 ISPHER=1 MULT=1 coord=prinaxis $end
 $system mwords=100 $end
 $scf RSTRCT=.true. $end
 $guess  guess=moread norb=86 $end
 $ccinp nfzv=0 ncore=4 $end
 $eominp MULT=-1 MINIT=1 MACT=1 NOACT=1 NUACT=3 NACT=3 $end
 $eominp CVGEOM=1.0d-10 nsave=0 jrest=0 nstate=5 $end
 $basis  gbasis=CCD $end
 $data
TMM-A23
Dnh 3

C 6.0 0.00000000 -1.40210000 -0.00000000
C 6.0 -0.00000000 -0.00000000 0.00000000
H 1.0 -0.92033299 -1.95859567 0.00000000
H 1.0 0.92033299 -1.95859567 -0.00000000
C 6.0 1.21425422 0.70105000 -0.00000000
C 6.0 -1.21425422 0.70105000 -0.00000000
H 1.0 1.23602711 1.77632959 -0.00000000
H 1.0 2.15636010 0.18226608 0.00000000
H 1.0 -1.23602711 1.77632959 0.00000000
H 1.0 -2.15636010 0.18226608 -0.00000000
$END
 $VEC   
 1  1-8.32373136E-03-3.60693104E-04 2.11861655E-03 3.73122437E-05-6.46267018E-05
 1  2 0.00000000E+00-5.41120434E-04 9.37248085E-04 0.00000000E+00-1.11264461E-04
 1  3-2.47752553E-04 3.59017014E-04 1.36488093E-04 0.00000000E+00 0.00000000E+00
 1  4-8.32373136E-03-3.60693104E-04 2.11861655E-03 3.73122437E-05 6.46267018E-05
 1  5 0.00000000E+00-5.41120434E-04-9.37248085E-04 0.00000000E+00-1.11264461E-04
 1  6-2.47752553E-04 3.59017014E-04-1.36488093E-04 0.00000000E+00 0.00000000E+00
 1  7-8.32373136E-03-3.60693104E-04 2.11861655E-03-7.46244873E-05 0.00000000E+00
 1  8 0.00000000E+00 1.08224087E-03 0.00000000E+00 0.00000000E+00-3.15996600E-04
 1  9-4.30204143E-05 3.59017014E-04 0.00000000E+00 0.00000000E+00 0.00000000E+00
 1 10 1.00220475E+00 4.99613775E-03-1.03179619E-02 0.00000000E+00 0.00000000E+00
 1 11 0.00000000E+00 0.00000000E+00 0.00000000E+00 0.00000000E+00 2.37898409E-04
 1 12 2.37898409E-04-4.75796818E-04 0.00000000E+00 0.00000000E+00 0.00000000E+00
 1 13 2.43079366E-05 1.47813084E-04-1.24422492E-04-1.33088438E-05 0.00000000E+00
 1 14 2.43079366E-05 1.47813084E-04 7.37370429E-05-1.01098617E-04 0.00000000E+00
 1 15 2.43079366E-05 1.47813084E-04 5.06854493E-05-1.14407461E-04 0.00000000E+00
 1 16 2.43079366E-05 1.47813084E-04 7.37370429E-05 1.01098617E-04 0.00000000E+00
 1 17 2.43079366E-05 1.47813084E-04-1.24422492E-04 1.33088438E-05 0.00000000E+00
 1 18 2.43079366E-05 1.47813084E-04 5.06854493E-05 1.14407461E-04 0.00000000E+00
 2  1-7.08468079E-01-2.57069032E-03 5.39806465E-03 9.30708177E-05-2.11703290E-04
 2  2 0.00000000E+00-1.03600367E-04 5.78955428E-04 0.00000000E+00-3.08693879E-04
 2  3-3.00582259E-04 6.09276138E-04 3.36396227E-05 0.00000000E+00 0.00000000E+00
 2  4 7.08468079E-01 2.57069032E-03-5.39806465E-03-9.30708177E-05-2.11703290E-04
 2  5 0.00000000E+00 1.03600367E-04 5.78955428E-04 0.00000000E+00 3.08693879E-04
 2  6 3.00582259E-04-6.09276138E-04 3.36396227E-05 0.00000000E+00 0.00000000E+00
 2  7 0.00000000E+00 0.00000000E+00 0.00000000E+00 0.00000000E+00-5.04999050E-05
 2  8 0.00000000E+00 0.00000000E+00 3.99514328E-04 0.00000000E+00 0.00000000E+00
 2  9 0.00000000E+00 0.00000000E+00 4.17512430E-05 0.00000000E+00 0.00000000E+00
 2 10 0.00000000E+00 0.00000000E+00 0.00000000E+00 0.00000000E+00-2.33667024E-04
 2 11 0.00000000E+00 0.00000000E+00 7.88661565E-04 0.00000000E+00 0.00000000E+00
 2 12 0.00000000E+00 0.00000000E+00-2.19942082E-04 0.00000000E+00 0.00000000E+00
 2 13 7.95311462E-05-9.43017545E-04-2.43721414E-04-4.90906052E-05 0.00000000E+00
 2 14-1.50470163E-04 7.33347192E-04-1.45616509E-04 1.87532190E-04 0.00000000E+00
 2 15-7.09390168E-05-2.09670353E-04-1.02523898E-05-1.57405475E-05 0.00000000E+00
 2 16 1.50470163E-04-7.33347192E-04 1.45616509E-04 1.87532190E-04 0.00000000E+00
 2 17-7.95311462E-05 9.43017545E-04 2.43721414E-04-4.90906052E-05 0.00000000E+00
 2 18 7.09390168E-05 2.09670353E-04 1.02523898E-05-1.57405475E-05 0.00000000E+00
 3  1-4.09034236E-01-1.48418875E-03 3.11657408E-03 1.04234367E-04-9.30708177E-05
 3  2-0.00000000E+00-4.59328028E-04 1.03600367E-04-0.00000000E+00-1.42066857E-04
 3  3-2.09698885E-04 3.51765742E-04-4.68324615E-06-0.00000000E+00-0.00000000E+00
 3  4-4.09034236E-01-1.48418875E-03 3.11657408E-03 1.04234367E-04 9.30708177E-05
 3  5-0.00000000E+00-4.59328028E-04-1.03600367E-04-0.00000000E+00-1.42066857E-04
 3  6-2.09698885E-04 3.51765742E-04 4.68324615E-06-0.00000000E+00-0.00000000E+00
 3  7 8.18068473E-01 2.96837750E-03-6.23314815E-03 2.65437752E-04-0.00000000E+00
 3  8-0.00000000E+00-6.38769127E-04-0.00000000E+00-0.00000000E+00 3.78556887E-04
 3  9 3.24974598E-04-7.03531485E-04-0.00000000E+00-0.00000000E+00-0.00000000E+00
 3 10-0.00000000E+00-0.00000000E+00-0.00000000E+00 2.33667024E-04-0.00000000E+00
 3 11-0.00000000E+00-7.88661565E-04-0.00000000E+00-0.00000000E+00-1.90475431E-04
 3 12 1.90475431E-04-0.00000000E+00-0.00000000E+00-0.00000000E+00-0.00000000E+00
 3 13 1.27830650E-04-3.02344964E-04-1.30891297E-04-9.00227492E-06-0.00000000E+00
 3 14 4.96066823E-06-6.65504668E-04 1.05731498E-04-1.07107180E-04-0.00000000E+00
 3 15-1.32791318E-04 9.67849632E-04-9.75412390E-05 2.62976079E-04-0.00000000E+00
 3 16 4.96066823E-06-6.65504668E-04 1.05731498E-04 1.07107180E-04-0.00000000E+00
 3 17 1.27830650E-04-3.02344964E-04-1.30891297E-04 9.00227492E-06-0.00000000E+00
 3 18-1.32791318E-04 9.67849632E-04-9.75412390E-05-2.62976079E-04-0.00000000E+00
 4  1 5.78284707E-01 1.91948717E-03-2.92944586E-03-1.27390283E-04 2.20646442E-04
 4  2-0.00000000E+00-1.60791307E-04 2.78498714E-04-0.00000000E+00 3.42546627E-04
 4  3 4.00134775E-04-7.42681402E-04-5.75881472E-05-0.00000000E+00-0.00000000E+00
 4  4 5.78284707E-01 1.91948717E-03-2.92944586E-03-1.27390283E-04-2.20646442E-04
 4  5-0.00000000E+00-1.60791307E-04-2.78498714E-04-0.00000000E+00 3.42546627E-04
 4  6 4.00134775E-04-7.42681402E-04 5.75881472E-05-0.00000000E+00-0.00000000E+00
 4  7 5.78284707E-01 1.91948717E-03-2.92944586E-03 2.54780565E-04-0.00000000E+00
 4  8-0.00000000E+00 3.21582615E-04-0.00000000E+00-0.00000000E+00 4.28928848E-04
 4  9 3.13752554E-04-7.42681402E-04-0.00000000E+00-0.00000000E+00-0.00000000E+00
 4 10 1.35526310E-02-2.15489717E-04-2.92229876E-04-0.00000000E+00-0.00000000E+00
 4 11-0.00000000E+00-0.00000000E+00-0.00000000E+00-0.00000000E+00-3.94405622E-04
 4 12-3.94405622E-04 7.88811245E-04-0.00000000E+00-0.00000000E+00-0.00000000E+00
 4 13-2.49553498E-04 7.00635868E-04 2.50480055E-04-4.20951955E-07-0.00000000E+00
 4 14-2.49553498E-04 7.00635868E-04-1.24875472E-04 2.17132567E-04-0.00000000E+00
 4 15-2.49553498E-04 7.00635868E-04-1.25604583E-04 2.16711615E-04-0.00000000E+00
 4 16-2.49553498E-04 7.00635868E-04-1.24875472E-04-2.17132567E-04-0.00000000E+00
 4 17-2.49553498E-04 7.00635868E-04 2.50480055E-04 4.20951955E-07-0.00000000E+00
 4 18-2.49553498E-04 7.00635868E-04-1.25604583E-04-2.16711615E-04-0.00000000E+00
 5  1-5.90298419E-03 1.90944619E-01 7.44670268E-02-4.85052878E-02 8.40136228E-02
 5  2-0.00000000E+00-3.19773977E-03 5.53864776E-03-0.00000000E+00-2.45732173E-03
 5  3 1.02982155E-02-7.84089373E-03-1.27555372E-02-0.00000000E+00-0.00000000E+00
 5  4-5.90298419E-03 1.90944619E-01 7.44670268E-02-4.85052878E-02-8.40136228E-02
 5  5-0.00000000E+00-3.19773977E-03-5.53864776E-03-0.00000000E+00-2.45732173E-03
 5  6 1.02982155E-02-7.84089373E-03 1.27555372E-02-0.00000000E+00-0.00000000E+00
 5  7-5.90298419E-03 1.90944619E-01 7.44670268E-02 9.70105755E-02-0.00000000E+00
 5  8-0.00000000E+00 6.39547955E-03-0.00000000E+00-0.00000000E+00 1.66759841E-02
 5  9-8.83509033E-03-7.84089373E-03-0.00000000E+00-0.00000000E+00-0.00000000E+00
 5 10-2.49888008E-02 3.11866411E-01 2.59167626E-01-0.00000000E+00-0.00000000E+00
 5 11-0.00000000E+00-0.00000000E+00-0.00000000E+00-0.00000000E+00 9.94691308E-03
 5 12 9.94691308E-03-1.98938262E-02-0.00000000E+00-0.00000000E+00-0.00000000E+00
 5 13 5.63793503E-02-3.36082225E-03-1.05397072E-02 2.74365105E-03-0.00000000E+00
 5 14 5.63793503E-02-3.36082225E-03 2.89378210E-03-1.04994797E-02-0.00000000E+00
 5 15 5.63793503E-02-3.36082225E-03 7.64592512E-03-7.75582867E-03-0.00000000E+00
 5 16 5.63793503E-02-3.36082225E-03 2.89378210E-03 1.04994797E-02-0.00000000E+00
 5 17 5.63793503E-02-3.36082225E-03-1.05397072E-02-2.74365105E-03-0.00000000E+00
 5 18 5.63793503E-02-3.36082225E-03 7.64592512E-03 7.75582867E-03-0.00000000E+00
 6  1 3.63527749E-03-1.75221744E-01-8.72610648E-02-3.34764187E-02-3.47314011E-02
 6  2-0.00000000E+00 4.96169778E-03 1.24509181E-02-0.00000000E+00 4.63027089E-03
 6  3-9.18520512E-03 4.55493423E-03-2.41790289E-03-0.00000000E+00-0.00000000E+00
 6  4 3.63527749E-03-1.75221744E-01-8.72610648E-02-3.34764187E-02 3.47314011E-02
 6  5-0.00000000E+00 4.96169778E-03-1.24509181E-02-0.00000000E+00 4.63027089E-03
 6  6-9.18520512E-03 4.55493423E-03 2.41790289E-03-0.00000000E+00-0.00000000E+00
 6  7-7.27055498E-03 3.50443487E-01 1.74522130E-01 2.66801327E-02-0.00000000E+00
 6  8-0.00000000E+00-1.66039251E-02-0.00000000E+00-0.00000000E+00 7.83581789E-03
 6  9 1.27405057E-03-9.10986846E-03-0.00000000E+00-0.00000000E+00-0.00000000E+00
 6 10-0.00000000E+00-0.00000000E+00-0.00000000E+00-2.32494083E-01-0.00000000E+00
 6 11-0.00000000E+00-1.32864841E-01-0.00000000E+00-0.00000000E+00 2.29174656E-02
 6 12-2.29174656E-02-0.00000000E+00-0.00000000E+00-0.00000000E+00-0.00000000E+00
 6 13-1.02082275E-01-5.27409859E-03 1.48009233E-02-5.27457251E-04-0.00000000E+00
 6 14-5.41135600E-02 8.39094957E-03-3.57696548E-03 8.35711746E-03-0.00000000E+00
 6 15 1.56195835E-01-3.11685098E-03 1.33062463E-02-1.98305487E-02-0.00000000E+00
 6 16-5.41135600E-02 8.39094957E-03-3.57696548E-03-8.35711746E-03-0.00000000E+00
 6 17-1.02082275E-01-5.27409859E-03 1.48009233E-02 5.27457251E-04-0.00000000E+00
 6 18 1.56195835E-01-3.11685098E-03 1.33062463E-02 1.98305487E-02-0.00000000E+00
 7  1 6.29648531E-03-3.03492962E-01-1.51140598E-01 3.47314011E-02-6.62794890E-03
 7  2 0.00000000E+00-1.24509181E-02 9.41538411E-03 0.00000000E+00-6.03865408E-03
 7  3-1.85072342E-03 7.88937751E-03 5.18441502E-03 0.00000000E+00 0.00000000E+00
 7  4-6.29648531E-03 3.03492962E-01 1.51140598E-01-3.47314011E-02-6.62794890E-03
 7  5 0.00000000E+00 1.24509181E-02 9.41538411E-03 0.00000000E+00 6.03865408E-03
 7  6 1.85072342E-03-7.88937751E-03 5.18441502E-03 0.00000000E+00 0.00000000E+00
 7  7 0.00000000E+00 0.00000000E+00 0.00000000E+00 0.00000000E+00 5.35286025E-02
 7  8 0.00000000E+00 0.00000000E+00-1.21502387E-02 0.00000000E+00 0.00000000E+00
 7  9 0.00000000E+00 0.00000000E+00 9.37234568E-03 0.00000000E+00 0.00000000E+00
 7 10 0.00000000E+00 0.00000000E+00 0.00000000E+00 0.00000000E+00 2.32494083E-01
 7 11 0.00000000E+00 0.00000000E+00 1.32864841E-01 0.00000000E+00 0.00000000E+00
 7 12 0.00000000E+00 0.00000000E+00 2.64628099E-02 0.00000000E+00 0.00000000E+00
 7 13-1.21422186E-01 6.64403175E-03 1.89675965E-02-1.55254612E-03 0.00000000E+00
 7 14 1.49116937E-01 1.24548748E-03 1.00830218E-02-1.99304349E-02 0.00000000E+00
 7 15 2.76947507E-02 7.88951923E-03 1.39040942E-03-3.04722312E-03 0.00000000E+00
 7 16-1.49116937E-01-1.24548748E-03-1.00830218E-02-1.99304349E-02 0.00000000E+00
 7 17 1.21422186E-01-6.64403175E-03-1.89675965E-02-1.55254612E-03 0.00000000E+00
 7 18-2.76947507E-02-7.88951923E-03-1.39040942E-03-3.04722312E-03 0.00000000E+00
 8  1 4.99968197E-03-1.27136161E-01-1.47016196E-01-1.12027117E-01 1.94036659E-01
 8  2 0.00000000E+00-2.09554835E-02 3.62959621E-02 0.00000000E+00-8.06608152E-03
 8  3 8.20004377E-03-1.33962246E-04-1.62661253E-02 0.00000000E+00 0.00000000E+00
 8  4 4.99968197E-03-1.27136161E-01-1.47016196E-01-1.12027117E-01-1.94036659E-01
 8  5 0.00000000E+00-2.09554835E-02-3.62959621E-02 0.00000000E+00-8.06608152E-03
 8  6 8.20004377E-03-1.33962246E-04 1.62661253E-02 0.00000000E+00 0.00000000E+00
 8  7 4.99968197E-03-1.27136161E-01-1.47016196E-01 2.24054235E-01 0.00000000E+00
 8  8 0.00000000E+00 4.19109670E-02 0.00000000E+00 0.00000000E+00 1.63331064E-02
 8  9-1.61991442E-02-1.33962246E-04 0.00000000E+00 0.00000000E+00 0.00000000E+00
 8 10-6.92980152E-03 2.21219309E-01 2.43171149E-01 0.00000000E+00 0.00000000E+00
 8 11 0.00000000E+00 0.00000000E+00 0.00000000E+00 0.00000000E+00 7.98704028E-05
 8 12 7.98704028E-05-1.59740806E-04 0.00000000E+00 0.00000000E+00 0.00000000E+00
 8 13-1.47506242E-01-1.67394057E-02 1.67156697E-02 3.41410294E-03 0.00000000E+00
 8 14-1.47506242E-01-1.67394057E-02-1.13145347E-02 1.27691431E-02 0.00000000E+00
 8 15-1.47506242E-01-1.67394057E-02-5.40113496E-03 1.61832460E-02 0.00000000E+00
 8 16-1.47506242E-01-1.67394057E-02-1.13145347E-02-1.27691431E-02 0.00000000E+00
 8 17-1.47506242E-01-1.67394057E-02 1.67156697E-02-3.41410294E-03 0.00000000E+00
 8 18-1.47506242E-01-1.67394057E-02-5.40113496E-03-1.61832460E-02 0.00000000E+00
 9  1-4.03913200E-03 5.08776805E-02 1.24720672E-01 2.35743659E-01-1.18836993E-01
 9  2 0.00000000E+00 6.21309212E-02-2.00718263E-02 0.00000000E+00 5.73675110E-03
 9  3-7.76816849E-03 2.03141739E-03 1.19891541E-02 0.00000000E+00 0.00000000E+00
 9  4 4.03913200E-03-5.08776805E-02-1.24720672E-01-2.35743659E-01-1.18836993E-01
 9  5 0.00000000E+00-6.21309212E-02-2.00718263E-02 0.00000000E+00-5.73675110E-03
 9  6 7.76816849E-03-2.03141739E-03 1.19891541E-02 0.00000000E+00 0.00000000E+00
 9  7 0.00000000E+00 0.00000000E+00 0.00000000E+00 0.00000000E+00 2.89483001E-01
 9  8 0.00000000E+00 0.00000000E+00 8.75420859E-02 0.00000000E+00 0.00000000E+00
 9  9 0.00000000E+00 0.00000000E+00-1.51576547E-03 0.00000000E+00 0.00000000E+00
 9 10 0.00000000E+00 0.00000000E+00 0.00000000E+00 0.00000000E+00 2.35805728E-01
 9 11 0.00000000E+00 0.00000000E+00 1.47975437E-01 0.00000000E+00 0.00000000E+00
 9 12 0.00000000E+00 0.00000000E+00-9.82694409E-03 0.00000000E+00 0.00000000E+00
 9 13 1.94929580E-01 1.84445886E-02-1.81603369E-02-1.92938401E-03 0.00000000E+00
 9 14-2.33380145E-02-2.34097669E-03-7.37933824E-03 8.35665172E-05 0.00000000E+00
 9 15 1.71591565E-01 1.61036119E-02 1.10265713E-02-1.02595275E-02 0.00000000E+00
 9 16 2.33380145E-02 2.34097669E-03 7.37933824E-03 8.35665172E-05 0.00000000E+00
 9 17-1.94929580E-01-1.84445886E-02 1.81603369E-02-1.92938401E-03 0.00000000E+00
 9 18-1.71591565E-01-1.61036119E-02-1.10265713E-02-1.02595275E-02 0.00000000E+00
10  1-2.33199395E-03 2.93742425E-02 7.20075135E-02-1.53376336E-01-2.35743659E-01
10  2-0.00000000E+00-5.16707818E-02-6.21309212E-02-0.00000000E+00 1.99942339E-03
10  3-3.17226277E-03 1.17283938E-03 7.79706896E-03-0.00000000E+00-0.00000000E+00
10  4-2.33199395E-03 2.93742425E-02 7.20075135E-02-1.53376336E-01 2.35743659E-01
10  5-0.00000000E+00-5.16707818E-02 6.21309212E-02-0.00000000E+00 1.99942339E-03
10  6-3.17226277E-03 1.17283938E-03-7.79706896E-03-0.00000000E+00-0.00000000E+00
10  7 4.66398789E-03-5.87484851E-02-1.44015027E-01 2.54943658E-01-0.00000000E+00
10  8-0.00000000E+00 5.59431304E-02-0.00000000E+00-0.00000000E+00 1.54542859E-02
10  9-1.31086071E-02-2.34567876E-03-0.00000000E+00-0.00000000E+00-0.00000000E+00
10 10-0.00000000E+00-0.00000000E+00-0.00000000E+00-2.35805728E-01-0.00000000E+00
10 11-0.00000000E+00-1.47975437E-01-0.00000000E+00-0.00000000E+00-8.51038322E-03
10 12 8.51038322E-03-0.00000000E+00-0.00000000E+00-0.00000000E+00-0.00000000E+00
10 13-8.55942275E-02-7.94586115E-03 6.14084596E-03-6.21716072E-03-0.00000000E+00
10 14 2.11611082E-01 1.99464128E-02 8.15379649E-03-1.69981594E-02-0.00000000E+00
10 15-1.26016854E-01-1.20005517E-02-2.18929749E-03 1.33509263E-02-0.00000000E+00
10 16 2.11611082E-01 1.99464128E-02 8.15379649E-03 1.69981594E-02-0.00000000E+00
10 17-8.55942275E-02-7.94586115E-03 6.14084596E-03 6.21716072E-03-0.00000000E+00
10 18-1.26016854E-01-1.20005517E-02-2.18929749E-03-1.33509263E-02-0.00000000E+00
11  1 0.00000000E+00 0.00000000E+00 0.00000000E+00-2.55085642E-01-1.47273764E-01
11  2 0.00000000E+00-1.07426840E-01-6.20229152E-02 0.00000000E+00-8.99686137E-03
11  3 8.99686137E-03 0.00000000E+00 5.99790758E-03 0.00000000E+00 0.00000000E+00
11  4 0.00000000E+00 0.00000000E+00 0.00000000E+00 2.55085642E-01-1.47273764E-01
11  5 0.00000000E+00 1.07426840E-01-6.20229152E-02 0.00000000E+00 8.99686137E-03
11  6-8.99686137E-03 0.00000000E+00 5.99790758E-03 0.00000000E+00 0.00000000E+00
11  7 0.00000000E+00 0.00000000E+00 0.00000000E+00 0.00000000E+00 2.94547528E-01
11  8 0.00000000E+00 0.00000000E+00 1.24045830E-01 0.00000000E+00 0.00000000E+00
11  9 0.00000000E+00 0.00000000E+00-1.19958152E-02 0.00000000E+00 0.00000000E+00
11 10 0.00000000E+00 0.00000000E+00 0.00000000E+00 0.00000000E+00 0.00000000E+00
11 11 0.00000000E+00 0.00000000E+00 0.00000000E+00 0.00000000E+00 0.00000000E+00
11 12 0.00000000E+00 0.00000000E+00 0.00000000E+00 0.00000000E+00 0.00000000E+00
11 13-1.93097954E-01-2.47167331E-02 1.56372680E-02-5.32144663E-03 0.00000000E+00
11 14-1.93097954E-01-2.47167331E-02-3.21012604E-03 1.62029947E-02 0.00000000E+00
11 15 1.93097954E-01 2.47167331E-02 1.24271420E-02-1.08815480E-02 0.00000000E+00
11 16 1.93097954E-01 2.47167331E-02 3.21012604E-03 1.62029947E-02 0.00000000E+00
11 17 1.93097954E-01 2.47167331E-02-1.56372680E-02-5.32144663E-03 0.00000000E+00
11 18-1.93097954E-01-2.47167331E-02-1.24271420E-02-1.08815480E-02 0.00000000E+00
12  1-1.62353961E-03-2.52606945E-02-1.60928583E-02 2.77676358E-01-2.91097931E-02
12  2-0.00000000E+00 1.27670037E-01 2.56435740E-03-0.00000000E+00 2.40025151E-02
12  3-2.43670476E-02 3.64532568E-04-4.78782809E-03-0.00000000E+00-0.00000000E+00
12  4-1.62353961E-03-2.52606945E-02-1.60928583E-02 2.77676358E-01 2.91097931E-02
12  5-0.00000000E+00 1.27670037E-01-2.56435740E-03-0.00000000E+00 2.40025151E-02
12  6-2.43670476E-02 3.64532568E-04 4.78782809E-03-0.00000000E+00-0.00000000E+00
12  7 3.24707923E-03 5.05213891E-02 3.21857165E-02 3.28095999E-01-0.00000000E+00
12  8-0.00000000E+00 1.23228440E-01-0.00000000E+00-0.00000000E+00 1.73675718E-02
12  9-1.66385066E-02-7.29065135E-04-0.00000000E+00-0.00000000E+00-0.00000000E+00
12 10-0.00000000E+00-0.00000000E+00-0.00000000E+00-2.94998042E-01-0.00000000E+00
12 11-0.00000000E+00-8.79242834E-02-0.00000000E+00-0.00000000E+00 3.71533700E-02
12 12-3.71533700E-02-0.00000000E+00-0.00000000E+00-0.00000000E+00-0.00000000E+00
12 13 2.09331177E-01 3.49343824E-02-1.35083258E-02 4.05551629E-03-0.00000000E+00
12 14-1.02051076E-01-1.61114174E-02 5.21519108E-03 1.02563473E-02-0.00000000E+00
12 15-1.07280101E-01-1.88229650E-02 1.22350979E-03 9.05910949E-03-0.00000000E+00
12 16-1.02051076E-01-1.61114174E-02 5.21519108E-03-1.02563473E-02-0.00000000E+00
12 17 2.09331177E-01 3.49343824E-02-1.35083258E-02-4.05551629E-03-0.00000000E+00
12 18-1.07280101E-01-1.88229650E-02 1.22350979E-03-9.05910949E-03-0.00000000E+00
13  1 2.81205310E-03 4.37528064E-02 2.78736481E-02-2.91097931E-02 3.11289452E-01
13  2-0.00000000E+00 2.56435740E-03 1.24708972E-01-0.00000000E+00 4.46207522E-03
13  3-3.83068629E-03-6.31388928E-04-2.23976724E-02-0.00000000E+00-0.00000000E+00
13  4-2.81205310E-03-4.37528064E-02-2.78736481E-02 2.91097931E-02 3.11289452E-01
13  5-0.00000000E+00-2.56435740E-03 1.24708972E-01-0.00000000E+00-4.46207522E-03
13  6 3.83068629E-03 6.31388928E-04-2.23976724E-02-0.00000000E+00-0.00000000E+00
13  7-0.00000000E+00-0.00000000E+00-0.00000000E+00-0.00000000E+00 2.60869812E-01
13  8-0.00000000E+00-0.00000000E+00 1.29150570E-01-0.00000000E+00-0.00000000E+00
13  9-0.00000000E+00-0.00000000E+00-3.06904339E-02-0.00000000E+00-0.00000000E+00
13 10-0.00000000E+00-0.00000000E+00-0.00000000E+00-0.00000000E+00-2.94998042E-01
13 11-0.00000000E+00-0.00000000E+00-8.79242834E-02-0.00000000E+00-0.00000000E+00
13 12-0.00000000E+00-0.00000000E+00-4.29010164E-02-0.00000000E+00-0.00000000E+00
13 13-3.01897889E-03-1.56551272E-03 5.53680251E-04 8.79524251E-03-0.00000000E+00
13 14 1.82795606E-01 3.10368190E-02 6.75451122E-03-9.92827436E-03-0.00000000E+00
13 15 1.79776627E-01 2.94713062E-02 1.25609455E-02-5.93659307E-03-0.00000000E+00
13 16-1.82795606E-01-3.10368190E-02-6.75451122E-03-9.92827436E-03-0.00000000E+00
13 17 3.01897889E-03 1.56551272E-03-5.53680251E-04 8.79524251E-03-0.00000000E+00
13 18-1.79776627E-01-2.94713062E-02-1.25609455E-02-5.93659307E-03-0.00000000E+00
14  1 0.00000000E+00 0.00000000E+00 0.00000000E+00 0.00000000E+00 0.00000000E+00
14  2 1.96530283E-01 0.00000000E+00 0.00000000E+00 8.99919955E-02 0.00000000E+00
14  3 0.00000000E+00 0.00000000E+00 0.00000000E+00-1.58763308E-02 2.74986116E-02
14  4 0.00000000E+00 0.00000000E+00 0.00000000E+00 0.00000000E+00 0.00000000E+00
14  5 1.96530283E-01 0.00000000E+00 0.00000000E+00 8.99919955E-02 0.00000000E+00
14  6 0.00000000E+00 0.00000000E+00 0.00000000E+00-1.58763308E-02-2.74986116E-02
14  7 0.00000000E+00 0.00000000E+00 0.00000000E+00 0.00000000E+00 0.00000000E+00
14  8 1.96530283E-01 0.00000000E+00 0.00000000E+00 8.99919955E-02 0.00000000E+00
14  9 0.00000000E+00 0.00000000E+00 0.00000000E+00 3.17526616E-02 0.00000000E+00
14 10 0.00000000E+00 0.00000000E+00 0.00000000E+00 0.00000000E+00 0.00000000E+00
14 11 4.39669874E-01 0.00000000E+00 0.00000000E+00 3.19198356E-01 0.00000000E+00
14 12 0.00000000E+00 0.00000000E+00 0.00000000E+00 0.00000000E+00 0.00000000E+00
14 13 0.00000000E+00 0.00000000E+00 0.00000000E+00 0.00000000E+00 6.95656128E-03
14 14 0.00000000E+00 0.00000000E+00 0.00000000E+00 0.00000000E+00 6.95656128E-03
14 15 0.00000000E+00 0.00000000E+00 0.00000000E+00 0.00000000E+00 6.95656128E-03
14 16 0.00000000E+00 0.00000000E+00 0.00000000E+00 0.00000000E+00 6.95656128E-03
14 17 0.00000000E+00 0.00000000E+00 0.00000000E+00 0.00000000E+00 6.95656128E-03
14 18 0.00000000E+00 0.00000000E+00 0.00000000E+00 0.00000000E+00 6.95656128E-03
15  1-0.00000000E+00-0.00000000E+00-0.00000000E+00-0.00000000E+00-0.00000000E+00
15  2-3.87877511E-01-0.00000000E+00-0.00000000E+00-4.35954286E-01-0.00000000E+00
15  3-0.00000000E+00-0.00000000E+00-0.00000000E+00 8.03289323E-03-2.93292974E-03
15  4-0.00000000E+00-0.00000000E+00-0.00000000E+00-0.00000000E+00-0.00000000E+00
15  5 3.87877511E-01-0.00000000E+00-0.00000000E+00 4.35954286E-01-0.00000000E+00
15  6-0.00000000E+00-0.00000000E+00-0.00000000E+00-8.03289323E-03-2.93292974E-03
15  7-0.00000000E+00-0.00000000E+00-0.00000000E+00-0.00000000E+00-0.00000000E+00
15  8-0.00000000E+00-0.00000000E+00-0.00000000E+00-0.00000000E+00-0.00000000E+00
15  9-0.00000000E+00-0.00000000E+00-0.00000000E+00-0.00000000E+00 1.09804495E-02
15 10-0.00000000E+00-0.00000000E+00-0.00000000E+00-0.00000000E+00-0.00000000E+00
15 11-0.00000000E+00-0.00000000E+00-0.00000000E+00-0.00000000E+00-0.00000000E+00
15 12-0.00000000E+00-0.00000000E+00-0.00000000E+00-0.00000000E+00 5.23582714E-02
15 13-0.00000000E+00-0.00000000E+00-0.00000000E+00-0.00000000E+00-1.40426056E-02
15 14-0.00000000E+00-0.00000000E+00-0.00000000E+00-0.00000000E+00 1.56578233E-02
15 15-0.00000000E+00-0.00000000E+00-0.00000000E+00-0.00000000E+00 1.61521775E-03
15 16-0.00000000E+00-0.00000000E+00-0.00000000E+00-0.00000000E+00-1.56578233E-02
15 17-0.00000000E+00-0.00000000E+00-0.00000000E+00-0.00000000E+00 1.40426056E-02
15 18-0.00000000E+00-0.00000000E+00-0.00000000E+00-0.00000000E+00-1.61521775E-03
16  1-0.00000000E+00-0.00000000E+00-0.00000000E+00-0.00000000E+00-0.00000000E+00
16  2-2.23941185E-01-0.00000000E+00-0.00000000E+00-2.51698325E-01-0.00000000E+00
16  3-0.00000000E+00-0.00000000E+00-0.00000000E+00-6.34265639E-03-8.03289323E-03
16  4-0.00000000E+00-0.00000000E+00-0.00000000E+00-0.00000000E+00-0.00000000E+00
16  5-2.23941185E-01-0.00000000E+00-0.00000000E+00-2.51698325E-01-0.00000000E+00
16  6-0.00000000E+00-0.00000000E+00-0.00000000E+00-6.34265639E-03 8.03289323E-03
16  7-0.00000000E+00-0.00000000E+00-0.00000000E+00-0.00000000E+00-0.00000000E+00
16  8 4.47882371E-01-0.00000000E+00-0.00000000E+00 5.03396649E-01-0.00000000E+00
16  9-0.00000000E+00-0.00000000E+00-0.00000000E+00 7.57072281E-03-0.00000000E+00
16 10-0.00000000E+00-0.00000000E+00-0.00000000E+00-0.00000000E+00-0.00000000E+00
16 11-0.00000000E+00-0.00000000E+00-0.00000000E+00-0.00000000E+00-0.00000000E+00
16 12-0.00000000E+00-0.00000000E+00-0.00000000E+00-5.23582714E-02-0.00000000E+00
16 13-0.00000000E+00-0.00000000E+00-0.00000000E+00-0.00000000E+00-9.97259490E-03
16 14-0.00000000E+00-0.00000000E+00-0.00000000E+00-0.00000000E+00-7.17495570E-03
16 15-0.00000000E+00-0.00000000E+00-0.00000000E+00-0.00000000E+00 1.71475506E-02
16 16-0.00000000E+00-0.00000000E+00-0.00000000E+00-0.00000000E+00-7.17495570E-03
16 17-0.00000000E+00-0.00000000E+00-0.00000000E+00-0.00000000E+00-9.97259490E-03
16 18-0.00000000E+00-0.00000000E+00-0.00000000E+00-0.00000000E+00 1.71475506E-02
17  1-0.00000000E+00-0.00000000E+00-0.00000000E+00-0.00000000E+00-0.00000000E+00
17  2-2.07152803E-01-0.00000000E+00-0.00000000E+00-5.69872998E-01-0.00000000E+00
17  3-0.00000000E+00-0.00000000E+00-0.00000000E+00-1.91852454E-02 3.32298199E-02
17  4-0.00000000E+00-0.00000000E+00-0.00000000E+00-0.00000000E+00-0.00000000E+00
17  5-2.07152803E-01-0.00000000E+00-0.00000000E+00-5.69872998E-01-0.00000000E+00
17  6-0.00000000E+00-0.00000000E+00-0.00000000E+00-1.91852454E-02-3.32298199E-02
17  7-0.00000000E+00-0.00000000E+00-0.00000000E+00-0.00000000E+00-0.00000000E+00
17  8-2.07152803E-01-0.00000000E+00-0.00000000E+00-5.69872998E-01-0.00000000E+00
17  9-0.00000000E+00-0.00000000E+00-0.00000000E+00 3.83704909E-02-0.00000000E+00
17 10-0.00000000E+00-0.00000000E+00-0.00000000E+00-0.00000000E+00-0.00000000E+00
17 11 4.50172154E-01-0.00000000E+00-0.00000000E+00 9.22785470E-01-0.00000000E+00
17 12-0.00000000E+00-0.00000000E+00-0.00000000E+00-0.00000000E+00-0.00000000E+00
17 13-0.00000000E+00-0.00000000E+00-0.00000000E+00-0.00000000E+00-1.28366268E-02
17 14-0.00000000E+00-0.00000000E+00-0.00000000E+00-0.00000000E+00-1.28366268E-02
17 15-0.00000000E+00-0.00000000E+00-0.00000000E+00-0.00000000E+00-1.28366268E-02
17 16-0.00000000E+00-0.00000000E+00-0.00000000E+00-0.00000000E+00-1.28366268E-02
17 17-0.00000000E+00-0.00000000E+00-0.00000000E+00-0.00000000E+00-1.28366268E-02
17 18-0.00000000E+00-0.00000000E+00-0.00000000E+00-0.00000000E+00-1.28366268E-02
18  1 5.65718367E-03-1.31293639E-02-3.60438958E-01-2.25631174E-01-4.07082274E-02
18  2 0.00000000E+00-7.65277657E-01-2.07241873E-01 0.00000000E+00 1.02729006E-02
18  3-1.50788213E-02 4.80592075E-03-6.50550802E-03 0.00000000E+00 0.00000000E+00
18  4 5.65718367E-03-1.31293639E-02-3.60438958E-01-2.25631174E-01 4.07082274E-02
18  5 0.00000000E+00-7.65277657E-01 2.07241873E-01 0.00000000E+00 1.02729006E-02
18  6-1.50788213E-02 4.80592075E-03 6.50550802E-03 0.00000000E+00 0.00000000E+00
18  7-1.13143673E-02 2.62587278E-02 7.20877917E-01-1.55122455E-01 0.00000000E+00
18  8 0.00000000E+00-4.06324203E-01 0.00000000E+00 0.00000000E+00 7.72351968E-03
18  9 1.88832182E-03-9.61184150E-03 0.00000000E+00 0.00000000E+00 0.00000000E+00
18 10 0.00000000E+00 0.00000000E+00 0.00000000E+00-4.38772780E-02 0.00000000E+00
18 11 0.00000000E+00 1.45628691E-01 0.00000000E+00 0.00000000E+00-3.03210282E-02
18 12 3.03210282E-02 0.00000000E+00 0.00000000E+00 0.00000000E+00 0.00000000E+00
18 13 4.61210299E-02 1.25858793E+00 5.75491732E-04 5.94916977E-03 0.00000000E+00
18 14-2.14558505E-02-6.61439513E-01 3.09417414E-03-3.54468500E-03 0.00000000E+00
18 15-2.46651794E-02-5.97148422E-01-6.38708647E-03 9.79000565E-04 0.00000000E+00
18 16-2.14558505E-02-6.61439513E-01 3.09417414E-03 3.54468500E-03 0.00000000E+00
18 17 4.61210299E-02 1.25858793E+00 5.75491732E-04-5.94916977E-03 0.00000000E+00
18 18-2.46651794E-02-5.97148422E-01-6.38708647E-03-9.79000565E-04 0.00000000E+00
19  1-9.79852954E-03 2.27407254E-02 6.24298589E-01-4.07082274E-02-1.78625361E-01
19  2 0.00000000E+00-2.07241873E-01-5.25975354E-01 0.00000000E+00 9.79598467E-03
19  3-1.47188575E-03-8.32409892E-03-7.12490986E-03 0.00000000E+00 0.00000000E+00
19  4 9.79852954E-03-2.27407254E-02-6.24298589E-01 4.07082274E-02-1.78625361E-01
19  5 0.00000000E+00 2.07241873E-01-5.25975354E-01 0.00000000E+00-9.79598467E-03
19  6 1.47188575E-03 8.32409892E-03-7.12490986E-03 0.00000000E+00 0.00000000E+00
19  7 0.00000000E+00 0.00000000E+00 0.00000000E+00 0.00000000E+00-2.49134080E-01
19  8 0.00000000E+00 0.00000000E+00-8.84928808E-01 0.00000000E+00 0.00000000E+00
19  9 0.00000000E+00 0.00000000E+00-1.83927803E-02 0.00000000E+00 0.00000000E+00
19 10 0.00000000E+00 0.00000000E+00 0.00000000E+00 0.00000000E+00-4.38772780E-02
19 11 0.00000000E+00 0.00000000E+00 1.45628691E-01 0.00000000E+00 0.00000000E+00
19 12 0.00000000E+00 0.00000000E+00 3.50117076E-02 0.00000000E+00 0.00000000E+00
19 13-1.85290688E-03 3.71184789E-02 4.99884697E-03-2.38710546E-03 0.00000000E+00
19 14 4.08684369E-02 1.07140989E+00-4.49500780E-03-4.90578787E-03 0.00000000E+00
19 15 3.90155301E-02 1.10852836E+00 1.92932337E-03 4.57547274E-03 0.00000000E+00
19 16-4.08684369E-02-1.07140989E+00 4.49500780E-03-4.90578787E-03 0.00000000E+00
19 17 1.85290688E-03-3.71184789E-02-4.99884697E-03-2.38710546E-03 0.00000000E+00
19 18-3.90155301E-02-1.10852836E+00-1.92932337E-03 4.57547274E-03 0.00000000E+00
20  1 3.61354349E-01 7.42693293E-01-3.48263871E+00-1.49954071E-02 2.59728069E-02
20  2-0.00000000E+00 4.76436773E-01-8.25212697E-01-0.00000000E+00-1.97470754E-02
20  3-1.54955594E-01 1.74702670E-01 1.35208519E-01-0.00000000E+00-0.00000000E+00
20  4 3.61354349E-01 7.42693293E-01-3.48263871E+00-1.49954071E-02-2.59728069E-02
20  5-0.00000000E+00 4.76436773E-01 8.25212697E-01-0.00000000E+00-1.97470754E-02
20  6-1.54955594E-01 1.74702670E-01-1.35208519E-01-0.00000000E+00-0.00000000E+00
20  7 3.61354349E-01 7.42693293E-01-3.48263871E+00 2.99908142E-02-0.00000000E+00
20  8-0.00000000E+00-9.52873546E-01-0.00000000E+00-0.00000000E+00-2.22559854E-01
20  9 4.78571839E-02 1.74702670E-01-0.00000000E+00-0.00000000E+00-0.00000000E+00