!    REFERENCE ENERGY:      -38.4744906021
!         CCSD ENERGY:      -38.5988117277   CORR. E=  -0.1243211256
!        ---- SUMMARY OF DIP-EOMCC CALCULATIONS ----
!                          DOUBLED
!            SPIN         IONIZATION             TOTAL
! STATE      MULT         ENERGY (H)           ENERGY (H)       ITERATIONS
!  1          1         -0.3644241029        -38.9632358306     CONVERGED
!
 $contrl runtyp=energy scftyp=rohf cctyp=dipeom3 maxit=100 $end
 $contrl UNITS=bohr  icharg=-2 MULT=1 $end
 $system mwords=800 $end
 $scf conv=1d-8 diis=.true. $end
 $ccinp nfzv=0 ncore=0 iconv=10 maxcc=100 $end
 $eominp MULT=1 NOACT=2 NUACT=5 CVGEOM=1.0d-6 $end
 $data
CH2 TZ2P
cnv 2
 
CARBON      6.0      0.0000000000      0.0000000000      0.0000000000
   S      6
     1      4232.6100000000  0.00202900
     2       634.8820000000  0.01553500
     3       146.0970000000  0.07541100
     4        42.4974000000  0.25712100
     5        14.1892000000  0.59655500
     6         1.9666000000  0.24251700
   S      1
     1         5.1477000000  1.00000000
   S      1
     1         0.4962000000  1.00000000
   S      1
     1         0.1533000000  1.00000000
   P      4
     1        18.1557000000  0.01853400
     2         3.9864000000  0.11544200
     3         1.1429000000  0.38620600
     4         0.3594000000  0.64008900
   P      1
     1         0.1146000000  1.00000000

HYDROGEN#1  1.       0.0000000000      1.6444030000      1.322130
   S      3
     1        19.2406000000  0.03282800
     2         2.8992000000  0.23120800
     3         0.6534000000  0.81723800
   S      1
     1         0.1776000000  1.00000000

 $END

