! Multi-FED-FCD couplings of the DCP Dimer from Figure 3 of
! J. Phys. Chem. Lett. 2021, 12, 1032−1039
!
! The coordinates of the DCP dimer are extracted from the
! supporting information. Currently the wB97X-V functional
! is not implemented in GAMESS. The closest functional in
! GAMESS that also works with TDDFT is LC-BOP.
!
!       SUMMARY OF MULTI-FED-FCD LOCALIZED STATES
!
!   STATE  EXCITATION  TRANSITION DIPOLE, A.U.  OSCILLATOR
!              eV          X       Y       Z     STRENGTH
!     1       2.890    -0.1252  0.1389 -0.1583    0.004
!     2       2.890    -0.1252  0.1389 -0.1583    0.004
!     3       2.695    -0.4400  0.9775  1.1843    0.168
!   ...
!     6       2.695    -0.4400  0.9775  1.1843    0.168
!
!       THE MULTI-FED-FCD MATRIX IS (EV)
!
!              1           2           3     ...     6
!
!     1    2.8903574
!     2    0.0116295   2.8903696
!     3   -0.0169086  -0.0781971   2.6950552
!   ...
!     6   -0.0781967  -0.0169084   0.1131634     2.6950390
!
! Multi-FED-FCD states 1 and 2 are charge transfer states and
! will be denoted as CT1 and CT2. Multi-FED-FCD states 3 and 6
! are locally excited states and will be called LE1 and LE2.
! Reordering the Multi-FED-FCD matrix and labeling the states
! yields
!
!             LE1          LE2         CT1          CT2
! LE1      2.6950552    0.1131634   -0.0169086   -0.0781971
! LE2                   2.6950390   -0.0781967   -0.0169084
! CT1                                2.8903574    0.0116295
! CT2                                             2.8903696
!
! Except for the higher coupling between CT1 and CT2 this is
! close enough to Figure 3, which has
!
!            LE1          LE2         CT1           CT2
! LE1       2.699        0.113      -0.018        -0.082
! LE2                    2.699      -0.082        -0.018
! CT1                                2.925         0.001
! CT2                                              2.925
!
! The agreement gets better when 30 excited states are included,
! which helps to localize and purify the CT1 and CT2 states.
!
 $contrl scftyp=rhf runtyp=energy tddft=excite
         dfttyp=lcbop $end
 $system mwords=200 $end
 $basis  gbasis=n31 ngauss=6 ndfunc=1 $end
 $scf    dirscf=.true. $end
 $dft    nrad=96 nleb=302 nrad0=96 nleb0=302
         swoff=0 switch=0 $end
 $tddft  nstate=8 iroot=1 tammd=.true.
         unrlx=.true. fed=.true. ifedat(1)=1,36,37,72
         nrad=96 nleb=302 $end
 $data
DCP dimer
C1
Cl    17.0     7.73094217   30.30622486   17.54807058
Cl    17.0     9.48248186   25.84927514   13.52371505
C      6.0     8.22118405   29.06350365   16.43511029
C      6.0     8.99223998   27.09199635   14.63667534
C      6.0     8.81780872   27.90349948   16.93744785
C      6.0     8.39561532   28.25200052   14.13433778
C      6.0     9.2324666    26.87473072   16.01355938
C      6.0     7.98091083   29.28076928   15.05822626
C      6.0     9.85551069   25.72354297   16.51070795
C      6.0     7.35791335   30.43195703   14.56107769
H      1.0    10.12409364   25.06219965   15.91288679
H      1.0     7.08933039   31.09330035   15.15889884
C      6.0    10.08392616   25.53766827   17.86751961
C      6.0     7.12949787   30.61783173   13.20426602
C      6.0    10.74667001   24.37974186   18.38446091
C      6.0     6.46675403   31.77575814   12.68732473
H      1.0    11.03579699   23.71823007   17.79791881
H      1.0     6.17762704   32.43726993   13.27386682
C      6.0    10.95733355   24.23261445   19.70706254
C      6.0     6.25604388   31.92288555   11.3647231
H      1.0    11.39516914   23.47485213   20.02368403
H      1.0     5.8182549    32.68064787   11.0481016
C      6.0    10.51800067   25.22038969   20.61746586
C      6.0     6.69542337   30.93511031   10.45431978
H      1.0    10.67067109   25.10527092   21.52653309
H      1.0     6.54275294   31.05022908    9.54525255
C      6.0     9.88168571   26.32609149   20.18650019
C      6.0     7.33169173   29.82940851   10.88528545
H      1.0     9.58871385   26.95649313   20.80358585
H      1.0     7.62471019   29.19900687   10.26819978
C      6.0     9.64824554   26.54526641   18.7862191
C      6.0     7.5651785    29.61023359   12.28556654
C      6.0     9.04009558   27.68825545   18.31495333
C      6.0     8.17332846   28.46724455   12.75683231
H      1.0     8.76796434   28.33791843   18.92271745
H      1.0     8.4454597    27.81758157   12.14906818
Cl    17.0    11.61453497   30.30622486   17.54807058
Cl    17.0    13.36607466   25.84927514   13.52371505
C      6.0    12.10477685   29.06350365   16.43511029
C      6.0    12.87583278   27.09199635   14.63667534
C      6.0    12.70140152   27.90349948   16.93744785
C      6.0    12.27920812   28.25200052   14.13433778
C      6.0    13.116106     26.87473072   16.01355938
C      6.0    11.86455023   29.28076928   15.05822626
C      6.0    13.73910349   25.72354297   16.51070795
C      6.0    11.24150615   30.43195703   14.56107769
H      1.0    14.00768644   25.06219965   15.91288679
H      1.0    10.97292319   31.09330035   15.15889884
C      6.0    13.96751896   25.53766827   17.86751961
C      6.0    11.01309067   30.61783173   13.20426602
C      6.0    14.63026281   24.37974186   18.38446091
C      6.0    10.35034683   31.77575814   12.68732473
H      1.0    14.91938979   23.71823007   17.79791881
H      1.0    10.06121984   32.43726993   13.27386682
C      6.0    14.84097296   24.23261445   19.70706254
C      6.0    10.13968328   31.92288555   11.3647231
H      1.0    15.27876193   23.47485213   20.02368403
H      1.0     9.7018477    32.68064787   11.0481016
C      6.0    14.40159346   25.22038969   20.61746586
C      6.0    10.57901617   30.93511031   10.45431978
H      1.0    14.55426389   25.10527092   21.52653309
H      1.0    10.42634574   31.05022908    9.54525255
C      6.0    13.76532511   26.32609149   20.18650019
C      6.0    11.21528453   29.82940851   10.88528545
H      1.0    13.47230664   26.95649313   20.80358585
H      1.0    11.50830299   29.19900687   10.26819978
C      6.0    13.53183834   26.54526641   18.7862191
C      6.0    11.4487713    29.61023359   12.28556654
C      6.0    12.92368838   27.68825545   18.31495333
C      6.0    12.05692126   28.46724455   12.75683231
H      1.0    12.65155714   28.33791843   18.92271745
H      1.0    12.3290525    27.81758157   12.14906818
 $end
!TRAVIS-CI SKIP
!TRAVIS-CI LARGE
