!  FED couplings of polynorbornyl-linked
!  naphthalene dimer DN2 from Table 2 of
!  J. Phys. Chem. C, Vol. 112, No. 4, 2008
!
!  The coordinates are extracted from pages
!  2 and 3 of the supporting information.
!
!  The coupling values (meV) from Table 2 are
!
!  L_b (S_1, 1^1B_3u):  60.1
!  L_a (S_2, 1^1B_2u):  88.3
!  B_b (S_3, 2^1B_3u): 521
!
!  This matches the following FED output
!
!  STATES     X12(D)     X12(A)       DX12   COUPLING(EV)    FED-DX1    FED-DX2
!  ...
!  2    4   0.947235  -0.947235   1.894470     -0.0600532  -0.021724  -0.023959
!  ...
!  1    3  -0.945015   0.945015  -1.890031     -0.0883212  -0.025807  -0.025673
!  ...
!  5   12   0.668183  -0.668183   1.336367     -0.5212202  -0.048832  -0.056340
!
 $contrl scftyp=rhf runtyp=energy icut=10
         tddft=excite dfttyp=none $end
 $system mwords=50 $end
 $basis  gbasis=n31 ngauss=6 ndfunc=1 $end
 $scf    conv=1d-7 $end
 $tddft  nstate=12 iroot=1 tammd=.true.
         unrlx=.true. fed=.true. ifedat(1)=1,23,24,39
         cnvtol=1d-7 $end
 $data
DN2_Full
C1
C    6.0   -1.223757    0.715452    0.975853
C    6.0   -1.223757   -0.715452    0.975853
C    6.0   -2.203771    1.421820    0.337248
C    6.0   -3.254026    0.718297   -0.330296
C    6.0   -3.254026   -0.718297   -0.330296
C    6.0   -2.203771   -1.421820    0.337248
C    6.0   -4.311401    1.399544   -0.985917
C    6.0   -5.325540    0.707011   -1.612563
C    6.0   -5.325540   -0.707011   -1.612563
C    6.0   -4.311401   -1.399544   -0.985917
C    6.0    0.000000    1.144740    1.785077
C    6.0    0.000000   -1.144740    1.785077
C    6.0    0.000000    0.000000    2.852036
H    1.0   -2.214469   -2.510147    0.337377
H    1.0   -2.214469    2.510147    0.337377
H    1.0   -4.310241    2.487610   -0.983575
H    1.0   -6.130604    1.245467   -2.104777
H    1.0   -6.130604   -1.245467   -2.104777
H    1.0   -4.310241   -2.487610   -0.983575
H    1.0    0.000000    2.175219    2.144489
H    1.0    0.000000   -2.175219    2.144489
H    1.0   -0.897694    0.000000    3.478980
H    1.0    0.897694    0.000000    3.478980
C    6.0    1.223757    0.715452    0.975853
C    6.0    1.223757   -0.715452    0.975853
C    6.0    2.203771   -1.421820    0.337248
C    6.0    2.203771    1.421820    0.337248
C    6.0    3.254026   -0.718297   -0.330296
C    6.0    3.254026    0.718297   -0.330296
C    6.0    4.311401   -1.399544   -0.985917
C    6.0    4.311401    1.399544   -0.985917
C    6.0    5.325540   -0.707011   -1.612563
C    6.0    5.325540    0.707011   -1.612563
H    1.0    2.214469   -2.510147    0.337377
H    1.0    2.214469    2.510147    0.337377
H    1.0    4.310241   -2.487610   -0.983575
H    1.0    4.310241    2.487610   -0.983575
H    1.0    6.130604    1.245467   -2.104777
H    1.0    6.130604   -1.245467   -2.104777
 $end
!TRAVIS-CI SKIP
!Takes about 20 minutes to complete in serial
