!  FED couplings of truncated polynorbornyl-linked
!  naphthalene dimer DN2 from Table 2 of
!  J. Phys. Chem. C, Vol. 112, No. 4, 2008
!
!  The coordinates are extracted from pages
!  3 and 4 of the supporting information.
!
!  The coupling values (meV) from Table 2 are
!
!  L_b (S_1, 1^1B_3u):  93.8
!  L_a (S_2, 1^1B_2u): 115
!  B_b (S_3, 2^1B_3u): 595
!
!  This matches the following FED output
!
!  STATES     X12(D)     X12(A)       DX12   COUPLING(EV)    FED-DX1    FED-DX2
!  ...
!  2    4   0.953563  -0.953563   1.907126     -0.0937914  -0.000017   0.000016
!  ...
!  1    3   0.951949  -0.951949   1.903898     -0.1145174  -0.000014   0.000014
!  ...
!  5   12   0.829431  -0.829431   1.658862     -0.5949483  -0.000001   0.000001
!
 $contrl scftyp=rhf runtyp=energy icut=10
         tddft=excite dfttyp=none $end
 $system mwords=35 $end
 $basis  gbasis=n31 ngauss=6 ndfunc=1 $end
 $scf    conv=1d-7 $end
 $tddft  nstate=12 iroot=1 tammd=.true.
         unrlx=.true. fed=.true.
         ifedat(1)=1,18,19,36
         cnvtol=1d-7 $end
 $data
DN2 NO-NO
C1
C    6.0   2.203923  -1.421938   0.660551
C    6.0   3.254076  -0.718671  -0.007423
C    6.0   3.254076   0.718671  -0.007423
C    6.0   2.203923   1.421938   0.660551
C    6.0   4.311537  -1.400167  -0.662647
C    6.0   5.325576  -0.707871  -1.289716
C    6.0   5.325576   0.707871  -1.289716
C    6.0   4.311537   1.400167  -0.662647
C    6.0   1.223890   0.715250   1.297910
C    6.0   1.223890  -0.715250   1.297910
H    1.0   0.484616   1.340368   1.790893
H    1.0   0.484616  -1.340368   1.790893
H    1.0   2.214086   2.510030   0.658329
H    1.0   2.214086  -2.510030   0.658329
H    1.0   4.310525  -2.488231  -0.659654
H    1.0   6.130709  -1.246512  -1.781615
H    1.0   6.130709   1.246512  -1.781615
H    1.0   4.310525   2.488231  -0.659654
C    6.0  -2.203922   1.421938   0.660551
C    6.0  -2.203923  -1.421938   0.660551
C    6.0  -3.254076   0.718671  -0.007423
C    6.0  -3.254076  -0.718671  -0.007423
C    6.0  -4.311537   1.400167  -0.662647
C    6.0  -4.311537  -1.400167  -0.662647
C    6.0  -5.325576   0.707871  -1.289716
C    6.0  -5.325576  -0.707871  -1.289716
C    6.0  -1.223890   0.715250   1.297910
C    6.0  -1.223890  -0.715250   1.297910
H    1.0  -2.214086   2.510030   0.658329
H    1.0  -2.214086  -2.510030   0.658329
H    1.0  -4.310525   2.488231  -0.659654
H    1.0  -4.310525  -2.488231  -0.659654
H    1.0  -6.130709  -1.246512  -1.781615
H    1.0  -6.130709   1.246512  -1.781615
H    1.0  -0.484616   1.340368   1.790893
H    1.0  -0.484616  -1.340368   1.790893
 $end
!TRAVIS-CI SKIP
!Takes about 10 minutes to complete in serial
