!  FED couplings of stacked naphthalene
!  dimer from Figure 2 of
!  J. Phys. Chem. C, Vol. 112, No. 4, 2008
!
!  The coordinates are extracted from pages
!  1 and 2 of the supporting information.
!
!  The following FED output
!
!  STATES     X12(D)     X12(A)       DX12   COUPLING(EV)    FED-DX1    FED-DX2
!  ...
!  1    3  -0.629476   0.629476  -1.258951     -0.3508754   1.308628  -1.178797
!
!  matches the curve FED-3-21G for a distance
!  of 3.5A
!
 $contrl scftyp=rhf runtyp=energy icut=10
         tddft=excite dfttyp=none $end
 $system mwords=35 $end
 $basis  gbasis=n21 ngauss=3 $end
 $scf    conv=1d-7 $end
 $tddft  nstate=12 iroot=1 tammd=.true.
         unrlx=.true. fed=.true.
         ifedat(1)=1,18,19,36
         cnvtol=1d-7 $end
 $data
naphtalene dimer 3.5A
C1
C    6.0  -1.247231  -1.408472   0.000000
C    6.0  -2.442246  -0.711801   0.000000
C    6.0  -2.442246   0.711801   0.000000
C    6.0  -1.247231   1.408472   0.000000
C    6.0   0.000000   0.717709   0.000000
C    6.0   0.000000  -0.717709   0.000000
C    6.0   1.247231  -1.408472   0.000000
C    6.0   2.442246  -0.711801   0.000000
C    6.0   2.442246   0.711801   0.000000
C    6.0   1.247231   1.408472   0.000000
H    1.0  -1.245160  -2.498925   0.000000
H    1.0  -3.389646  -1.249013   0.000000
H    1.0  -3.389646   1.249013   0.000000
H    1.0  -1.245160   2.498925   0.000000
H    1.0   1.245160  -2.498925   0.000000
H    1.0   3.389646  -1.249013   0.000000
H    1.0   3.389646   1.249013   0.000000
H    1.0   1.245160   2.498925   0.000000
C    6.0  -1.240990  -1.407165   3.500000
C    6.0  -2.495729  -0.685584   3.500000
C    6.0  -2.495729   0.685584   3.500000
C    6.0  -1.240990   1.407165   3.500000
C    6.0   0.000000   0.725834   3.500000
C    6.0   0.000000  -0.725834   3.500000
C    6.0   1.240990  -1.407165   3.500000
C    6.0   2.495729  -0.685584   3.500000
C    6.0   2.495729   0.685584   3.500000
C    6.0   1.240990   1.407165   3.500000
H    1.0  -1.248476  -2.496836   3.500000
H    1.0  -3.431212  -1.242408   3.500000
H    1.0  -3.431212   1.242408   3.500000
H    1.0  -1.248476   2.496836   3.500000
H    1.0   1.248476  -2.496836   3.500000
H    1.0   3.431212  -1.242408   3.500000
H    1.0   3.431212   1.242408   3.500000
H    1.0   1.248476   2.496836   3.500000
 $end
