 $contrl scftyp=uhf dfttyp=M06-2X tddft=excite
         mult=3 runtyp=energy ispher=1 $end
 $system mwords=6 $end
 $dft    nrad=99 nleb=590 $end
 $tddft  nrad=99 nleb=590 nstate=3 cnvtol=5e-7 $end
 $guess  guess=huckel $end
 $scf    dirscf=.t. $end
 $DATA
triplet O2 open shell TDDFT test case...ground state's exp. Re used
Dnh  2

O           8.0   0.0000000000   0.0000000000  1.20752/2
   accd
   s 1 ; 1 0.01 1.0
   p 1 ; 1 0.02 1.0
   d 1 ; 1 0.04 1.0

 $end
