 $CONTRL SCFTYP=UHF RUNTYP=ENERGY EXETYP=RUN UNITS=ANGS
  MULT=2 NOSYM=1 ICHARG=0 COORD=UNIQUE TDDFT=EXCITE
  DFTTYP=MN15-L MAXIT=200 ISPHER=-1 $END
 $SYSTEM MWORDS=200 $END
 $SCF CONV=1.0d-06 $END
 $DFT NRAD=500 NLEB=2030 $END
 $GUESS MIX=.TRUE. $END
 $BASIS GBASIS=N31 NGAUSS=6 NDFUNC=1 NPFUNC=1 DIFFSP=.TRUE. $END
 $TDDFT NSTATE=5 MULT=2  NRAD=500 NLEB=2030 $END
 $DATA
STEP 3: OOTDA
C1
C 6  0.000000 0.000000 0.000000
H 1  0.000000 1.078000 0.000000
H 1  0.933000 -0.539000 0.000000
H 1  -0.933000 -0.539000 0.000000
 $END

!TRAVIS-CI SKIP


