! Test of Climbing-End method with Ethane bond rotation RHF/6-31++G(d,p)
 $SCF    DIRSCF=.TRUE. $END
 $CONTRL RUNTYP=NEBPATH $END
 $CONTRL INTTYP=HONDO ICUT=21 ITOL=31 MAXIT=200 $END
 $BASIS  NGAUSS=6 GBASIS=N31 DIFFSP=.TRUE. DIFFS=.TRUE. NDFUNC=1 NPFUNC=1 $END
 $SYSTEM MWORDS=1000 MEMDDI=200 TIMLIM=99999999 KDIAG=0 $END
 $NEB    IMAGES=15 MORINT=.TRUE. VIAPNT=.TRUE. 
         METHOD=STRING FSTEND=CLIMBING LSTEND=CLIMBING DELTAR=0.5
         TSLOCT=.TRUE.
         OPTTOL=1.0 MAXCYC=100 $END
 $CONTRL UNITS=ANGS $END
 $NEB    UNTCRD=ANGS $END

 $DATA
Ethane rotation
C1
C              6.0000     -0.0000131389      0.0000628640     -0.7706304019
C              6.0000      0.0000123545     -0.0000628748      0.7706302911
H              1.0000      0.5776813889     -0.8245576709     -1.1776147477
H              1.0000      0.4253037714      0.9127314082     -1.1774542454
H              1.0000     -1.0030390853     -0.0878879606     -1.1775322240
H              1.0000      0.5571934780      0.8385603657      1.1776029332
H              1.0000     -1.0048673283      0.0631103771      1.1775585466
H              1.0000      0.4477371150     -0.9019563914      1.1774410568
 $END


 $DATAVI
C              6.0000     -0.0000132581      0.0000627813     -0.7711537914
C              6.0000      0.0000123288     -0.0000628167      0.7711536629
H              1.0000      0.5137261016     -0.8649120715     -1.1786614136
H              1.0000      0.4922311479      0.8775209166     -1.1785014396
H              1.0000     -1.0060103680     -0.0123231521     -1.1785698908
H              1.0000      0.4922617935      0.8773240649      1.1786518019
H              1.0000     -1.0059729197     -0.0125046283      1.1785960745
H              1.0000      0.5137753097     -0.8651047074      1.1784863976
 $END

 $DATAPD
C              6.0000     -0.0000132601      0.0000628882     -0.7706299154
C              6.0000      0.0000122174     -0.0000628938      0.7706298274
H              1.0000      0.4476902215     -0.9017619050     -1.1776183565
H              1.0000      0.5571631408      0.8387550937     -1.1774639237
H              1.0000     -1.0049055732      0.0632931385     -1.1775185125
H              1.0000      0.4253368020      0.9125335898      1.1776097421
H              1.0000     -1.0030024431     -0.0880712508      1.1775456019
H              1.0000      0.5777302670     -0.8247485995      1.1774464964
 $END

!TRAVIS-CI SKIP

