 $CONTRL SCFTYP=RHF MPLEVL=2 MAXIT=50 MULT=1 $END
 $SCF DIRSCF=.TRUE. $END
 $CONTRL RUNTYP=NEBPATH   $END
 $BASIS GBASIS=N31 NGAUSS=6 NDFUNC=1 NPFUNC=1 DIFFSP=.TRUE. $END
 $GUESS  GUESS=MOREAD  NORB=289  $END
 $SYSTEM mwords=2000  memddi=500  TIMLIM=525600 $END
 $NEB   MORINT=.TRUE.  MAXCYC=100  $END
-----------------
 TOTAL NUMBER OF BASIS SET SHELLS             =  108
 NUMBER OF CARTESIAN GAUSSIAN BASIS FUNCTIONS =  289
 NUMBER OF ELECTRONS                          =   92
 NUMBER OF OCCUPIED ORBITALS (ALPHA)          =   46
 NUMBER OF OCCUPIED ORBITALS (BETA )          =   46
 TOTAL NUMBER OF ATOMS                        =   29
-----------
Nstep=   40  Energy =     -732.9768208392  gRMS =   0.0000299
----- RESULTS FROM SUCCESSFUL RHF      GEOMETRY SEARCH -----                    
 $DATA
Reactant...
C1
C           6.0  -8.0450217488   1.8930746648  -1.9895909872
C           6.0  -7.2654445246   2.8390679718  -1.0820448450
H           1.0  -8.9618449126   1.5533221616  -1.5043026047
H           1.0  -7.4535040506   1.0126973886  -2.2406726415
H           1.0  -8.3234349768   2.3859416130  -2.9224755066
H           1.0  -6.9681957481   2.3239658073  -0.1669035875
C           6.0  -8.0679264419   4.0767284164  -0.7073900275
H           1.0  -6.3427808516   3.1539591337  -1.5753210377
H           1.0  -8.9681487156   3.7755765863  -0.1645647945
H           1.0  -8.4008466643   4.5756241500  -1.6281379864
N           7.0  -7.2796688503   4.9539559859   0.1710137352
H           1.0  -6.4738723568   5.3053516007  -0.3450318451
H           1.0  -7.8344453194   5.7650455388   0.4305028907
O           8.0  -4.3479130602   3.3603179778   0.8022157998
C           6.0  -4.9438870108   3.7297372816   1.8219889570
C           6.0  -5.7876175956   2.7727726110   2.6165180973
C           6.0  -4.8338504848   5.1391904306   2.3400041178
H           1.0  -4.1166054931   5.1474586409   3.1648880549
H           1.0  -5.7953725255   5.4769222181   2.7219251010
H           1.0  -4.4857771516   5.8060658290   1.5557221336
H           1.0  -5.6212019194   1.7534436106   2.2780869463
H           1.0  -6.8316389297   3.0507503755   2.4615434456
H           1.0  -5.5706518859   2.8597745904   3.6820290722
SI         14.0  -3.5635048460   5.5093849012  -2.5131362050
O           8.0  -4.4470996166   5.3390617559  -1.0967205675
H           1.0  -3.6718830340   4.3090379629  -3.3722683640
H           1.0  -2.1300170918   5.7531497119  -2.2381367051
H           1.0  -4.1410818785   6.6725632878  -3.2102898165
H           1.0  -4.2121879048   4.6040637560  -0.4928606895
 $END

Product...
Nstep=   49  Energy =     -732.9865054817  gRMS =   0.0000243
----- RESULTS FROM SUCCESSFUL RHF      GEOMETRY SEARCH -----                    
 $DATAPD
C           6.0  -7.9971048184   2.0416650993  -1.9514557862
C           6.0  -6.8747090758   2.7491109127  -1.1976635662
H           1.0  -8.7095235206   1.5897712487  -1.2590219104
H           1.0  -7.6016011218   1.2491757786  -2.5860836711
H           1.0  -8.5445853781   2.7387933818  -2.5883654215
H           1.0  -6.3219928409   2.0384200129  -0.5843580514
C           6.0  -7.4245206607   3.8682095219  -0.3222375898
H           1.0  -6.1574980676   3.1720226655  -1.9047195909
H           1.0  -8.1557680983   3.4572441280   0.3841504930
H           1.0  -7.9622527862   4.5802034369  -0.9548034229
N           7.0  -6.3754315750   4.6482486535   0.3650949205
H           1.0  -5.0460140902   5.1140006893  -0.6756735727
H           1.0  -6.8041929671   5.4920992292   0.7416066602
O           8.0  -4.6544169447   3.1151280018   0.9304238646
C           6.0  -5.6300578012   3.9970781239   1.4744278296
C           6.0  -6.4956068007   3.1297481580   2.3759927598
C           6.0  -4.9525098239   5.1113574012   2.2675469413
H           1.0  -4.3179222766   4.6645687098   3.0309855072
H           1.0  -5.6883443382   5.7524704930   2.7574385753
H           1.0  -4.3334168380   5.7178529065   1.6062422148
H           1.0  -6.8931047996   2.2767681523   1.8293105218
H           1.0  -7.3213156251   3.7098122469   2.7906347601
H           1.0  -5.8847725677   2.7506866225   3.1940652754
SI         14.0  -3.8534481434   5.6484447252  -2.6085071352
O           8.0  -4.1096384866   5.1857630567  -1.0199083833
H           1.0  -4.4615399821   4.6919834151  -3.5629087067
H           1.0  -2.3940534476   5.6851517254  -2.8103311469
H           1.0  -4.4283515639   6.9856391797  -2.8839523392
H           1.0  -4.0971510001   3.6318916637   0.3203707510
 $END

E=     -732.9768208392, E(NUC)=  655.6810405989           
 $VEC
 1  1 5.68884880E-07 1.44370797E-06 2.07951397E-06 2.84216359E-06 6.11943003E-07
 1  2-7.64747480E-06 1.45759715E-06-2.30183744E-06 3.52622158E-06-3.94686270E-04
 1  3-7.08381677E-05-9.50795822E-05-3.41445804E-05 3.44553717E-06 1.39658093E-06
 1  4-1.03679191E-06 1.31434714E-06-6.94453414E-07-1.23383653E-06 4.71931513E-06
 1  5 1.87587553E-05 5.20500293E-06-1.21216386E-06-2.98458968E-06-1.52183832E-04
 1  6-6.32107537E-05-3.69662398E-05 3.60433105E-05 2.12695627E-04-4.98785021E-05
 1  7-5.77384698E-05-9.20411290E-05 3.84810230E-06 6.66137619E-06 9.37936375E-06
 1  8-2.86046021E-06 2.82566766E-06 2.76796666E-06 4.41582955E-07-2.92144372E-06
 1  9-1.95187466E-06-6.31746311E-07 9.37865313E-08-4.26042438E-06 3.08952528E-05
 1 10 4.50025375E-07 1.56707111E-06 3.75801065E-07-2.41922718E-06 3.20635475E-05
 1 11 7.41634610E-07-2.13818266E-07 1.18347431E-06 2.34088160E-06 2.02489109E-05
 1 12 2.92161484E-06 3.93604236E-07 1.34003977E-07-8.12201862E-07-2.98384572E-06
 1 13-3.65847768E-07 4.13385654E-07 3.22739400E-06 5.48039557E-05 3.33323827E-05
 1 14 4.89744251E-06-3.89830731E-05 1.56795104E-05-4.07287397E-06-6.89069533E-05
 1 15-4.50953045E-05 1.02268976E-07-1.02008357E-06-2.48069855E-06-1.71368821E-06
 1 16 1.59925366E-06-2.02969791E-06-4.21402633E-06 1.51816814E-04-3.53231649E-06
 1 17 1.88872903E-06 1.40462067E-06 5.50811084E-06-5.50742956E-06-7.04909499E-07
 1 18 4.82509195E-08 3.33991625E-07-5.38763124E-06-2.92370135E-05-3.71833376E-06
 1 19 7.10255470E-07-4.07771938E-07 5.36301037E-06 1.93791323E-05 3.80563536E-06
 1 20 4.50537192E-06-4.42874536E-06-1.36392918E-04-5.41555823E-05-3.66057833E-05
 1 21 5.74910036E-05-4.50570002E-05-1.07126803E-04-1.82423129E-05 3.80807913E-06
 1 22 6.03513108E-06 1.47613236E-05 1.11191561E-05-2.46964779E-06 8.25831630E-06
 1 23 1.73590629E-06-2.08707647E-06 1.62388301E-04-6.54725243E-06-4.60077783E-06
 1 24-2.62175286E-06 3.39657923E-06 2.27516902E-05 4.01199290E-06 3.83049506E-06
 1 25-2.36857879E-06 1.52763226E-06 9.07700250E-06-2.76022193E-06-9.97672394E-07
 1 26 3.59431495E-06-3.78989443E-05 6.97602888E-06 8.22544223E-06-2.34516878E-06
 1 27 2.47100797E-04-8.25269209E-06 1.13548146E-04-2.39579293E-05-1.46981231E-06
 1 28 6.13929677E-06 4.75594926E-06 1.06263346E-06 3.81399752E-07-3.32264491E-06
 1 29 2.65720326E-06 8.08839879E-06 6.89212767E-06 7.61473544E-06-1.14349054E-05
 1 30-2.55109957E-05-6.86902991E-05-6.66548728E-05 9.66714753E-05-8.95263850E-05
 1 31-1.20397349E-04-1.97300304E-04 1.29918505E-04 6.75201687E-06 6.02049308E-06
 1 32 3.65361262E-06 1.53362817E-06-1.03015420E-06-6.30177165E-07 1.11279674E-06
 1 33 8.89900926E-06-2.74551867E-06-3.83655058E-06 4.42323156E-06-1.09638399E-04
 1 34-1.97832197E-05-2.52363549E-05 6.51733738E-06-2.67719964E-04-2.97067330E-05
 1 35-3.83837969E-05 1.06184390E-06-1.61904109E-06-1.22515660E-06-7.34163779E-07
 1 36-2.24654509E-06 3.68002967E-07 1.26134771E-06 2.75650081E-06 8.24198505E-06
 1 37-6.45382778E-07-3.93648246E-06-1.89965255E-06-3.07881974E-05 2.74163143E-05
 1 38 1.52764984E-05-2.12102127E-05 1.92765301E-04 5.80696855E-07-5.13703786E-05
 1 39-1.24012299E-05 5.01891473E-06 4.26908748E-06 6.35287038E-06-1.11667088E-06
 1 40 1.15226245E-06 1.81585557E-06 9.74804341E-08 1.14418427E-05 5.47112711E-07
 1 41-4.87826041E-07 7.31232431E-07-2.97788408E-06 5.80461636E-05 6.46975148E-07
 1 42-1.55738369E-06-3.24751994E-06-5.70423745E-06-3.88509938E-05 4.15468354E-07
 1 43 7.41569167E-07 4.65892213E-06 1.04032594E-06 7.43391835E-06 9.30014755E-07
 1 44 9.01665629E-07 2.19185900E-07-1.16220147E-08 2.21214092E-05 1.31571039E-06
 1 45 5.88052346E-07 3.49379988E-07 5.06065404E-06 8.17398264E-06-1.00982773E-06
 1 46-6.52536779E-07-3.32034233E-07-9.96858354E-01-1.24428857E-02 1.36957165E-05
 1 47 4.87182898E-06-2.18484218E-05 1.72538801E-02 3.98543103E-06-6.33371136E-06
 1 48-1.87309985E-05-2.17323348E-03-1.32745843E-04-2.27508398E-05 2.01529118E-04
 1 49 8.22595768E-04-1.19788478E-05-2.35325603E-05 8.09348351E-06-6.01013322E-03
 1 50-5.99885227E-03-6.03108608E-03-2.69029555E-07 2.08479866E-05 2.47341097E-06
 1 51-1.23456688E-05-5.49211448E-06 4.00867974E-05 5.67644150E-07-5.46722933E-05
 1 52 1.24646504E-04 1.04937564E-04-2.76872815E-05-1.20086841E-04-5.83348479E-04
 1 53-2.56229984E-04-6.90082091E-06 4.44625826E-04-1.60537342E-05-2.45739015E-05
 1 54 3.34193251E-05-1.06780093E-05-4.66464788E-05-2.60847411E-05 6.61555463E-05
 1 55-1.29010842E-04 6.68409923E-06 8.16832210E-05 6.11571134E-05 6.38929215E-05
 1 56-1.15860562E-04-1.00379047E-04-1.73960888E-05-1.78161260E-05 6.66567694E-05
 1 57-1.23602865E-04 3.75712509E-05-7.92995949E-05 5.05794341E-05-2.93999758E-05
 1 58-8.01564969E-05-2.20067093E-05-1.89973679E-05 5.19698191E-05               
 2  1 3.20190918E-06 1.50064190E-05 2.09942795E-06 1.11315998E-06 6.00923282E-07
 2  2-1.19668978E-04-4.97559226E-05-4.31650442E-05-4.16260108E-05-3.54105035E-03
 2  3-4.63065260E-04-4.42907425E-04-4.38031269E-04 4.94354134E-06 2.12845510E-06
 2  4 3.56082866E-06-2.27169813E-06-2.20305302E-06-3.46324378E-06 5.85103694E-06
 2  5 2.44091232E-05 9.29255825E-06 4.67870443E-06 4.10707675E-06-1.34157008E-04
 2  6-7.52426344E-05-7.92586410E-05-1.00151290E-04 2.48217140E-03-1.00351405E-03
 2  7-1.46241208E-03-1.41988449E-03 8.54949396E-06 1.06987741E-05 5.76224140E-06
 2  8 1.49091083E-06 1.41346723E-06 6.00646136E-06 1.73224910E-06-1.83347190E-05
 2  9-1.26291355E-06 1.91033842E-07 1.67215229E-06 1.13282161E-06-2.52365078E-06
 2 10 1.11522304E-06 1.10974776E-06 1.05148302E-06 4.35833255E-06-2.73052858E-05
 2 11-8.05173921E-07 8.41856734E-07-1.66956441E-06-2.58354947E-06 1.80972741E-04
 2 12-6.19485029E-06 4.32165172E-06-3.90378303E-06-5.37207167E-07-6.23603346E-06
 2 13 2.87945874E-06 2.31360221E-06 1.26268482E-06 4.62446393E-05 1.97660057E-05
 2 14-1.74348842E-05 9.81880436E-06 2.84391126E-04 6.82297877E-05 1.78997836E-04
 2 15 1.47658654E-04 3.44417049E-06 4.45658881E-07 1.71586349E-06-2.56858416E-06
 2 16 2.79496730E-07-8.43056724E-07 7.65231945E-06 8.43495541E-05-4.19497864E-06
 2 17 1.55631464E-06-2.96918782E-06-4.47368089E-06-3.01041778E-05-2.03479373E-06
 2 18 7.67172564E-10-3.81590453E-07 3.14981788E-06-6.20151785E-05-3.81623649E-06
 2 19 8.80327478E-07-2.64009572E-06 4.72851269E-06 2.49763630E-05-3.40886821E-06
 2 20 2.87113779E-06 1.58799036E-07-1.70547624E-04 6.36550912E-05-1.11783543E-05
 2 21-2.80250449E-05 1.16593604E-03 3.65355537E-04-4.31192936E-04-1.24358037E-04
 2 22 8.30663118E-06 2.13984531E-06 1.03484326E-05 1.08085302E-05-4.93504657E-06
 2 23-2.40384176E-06 5.92605623E-07-1.74537235E-04-2.20077002E-07 1.21053078E-05
 2 24-7.04109940E-06 1.13829520E-05 7.83035273E-05 3.71848456E-06-8.73349509E-06
 2 25-2.53391501E-06-9.94612275E-01-2.07898254E-02 6.71165893E-04-5.19144400E-04
 2 26-1.19363273E-03-5.11529909E-03-4.66827995E-04 3.51885395E-04 9.16054790E-04
 2 27 3.49012715E-03-1.87531669E-04-6.85274781E-07-4.04098711E-04 4.27891899E-03
 2 28 4.11859000E-03 4.19085898E-03-5.48086404E-05 1.17995296E-04-2.99103895E-05
 2 29 3.58855295E-06-4.52408336E-04-8.78290198E-05 5.60254256E-05 1.31864531E-04
 2 30-1.00711374E-03-2.76093786E-04 1.58793447E-04 5.75955101E-04-2.96649843E-03
 2 31 2.05855784E-04 2.79602848E-04 1.23717534E-03 1.82287944E-04 1.27990712E-04
 2 32 3.52225911E-04-6.38783508E-05-1.70896666E-04 1.02415550E-04 1.96127009E-06
 2 33-1.93035851E-05 1.95747935E-05 8.07026309E-06-1.80407525E-05-3.21462270E-05
 2 34 1.54889748E-05-1.46919943E-04-1.53532010E-04 1.14178059E-03 4.29140790E-05
 2 35 5.84125414E-05-4.97135475E-04 4.34672632E-05-3.82259737E-05 6.83114640E-05
 2 36-2.04691153E-05-3.86973904E-05-9.89665299E-06 3.24147386E-06-1.48695885E-05
 2 37 7.10737210E-06-2.46393514E-05-2.02632720E-05-1.90871138E-05 1.14208392E-04
 2 38 6.19779152E-05-1.44461203E-04 2.81986019E-04-2.78645413E-05-1.11771250E-07
 2 39-2.88068645E-04 1.74521225E-05 1.86942591E-06 6.17857762E-05-4.57828312E-05
 2 40-4.37063370E-06 5.28887453E-05-7.07080312E-06 1.76501340E-05-1.39320634E-06
 2 41-3.42290437E-06 1.09543274E-05 2.46191311E-06 7.04242269E-05-9.29636206E-06
 2 42-1.04188324E-05 7.92678143E-06-5.70839131E-06-9.01690066E-05-4.39273654E-06
 2 43 3.92234949E-06 8.59350694E-06-8.33941900E-06-9.72368935E-05-5.55544094E-06
 2 44 3.00433758E-06 9.53805729E-06-1.13809475E-05 6.29519943E-05-3.99319598E-06
 2 45 1.08372300E-05 3.40045885E-06 8.63638280E-06 4.36153661E-05-2.30722084E-07
 2 46 1.14491119E-05 7.18935633E-06-2.23483542E-07 2.58406601E-06-9.10633387E-07
 2 47 9.42694007E-07-1.19329839E-06-7.00253877E-06 3.58803671E-06-8.27211236E-06
 2 48 1.57209352E-05-1.01293270E-04-6.81924349E-05 2.26085885E-05-4.60389332E-05
 2 49 2.62739724E-05 3.66299240E-05-1.12218298E-05 2.11040365E-05 5.99276575E-06
 2 50 7.77556078E-06 1.01282540E-05 3.14664416E-06-2.47173753E-06-6.23357804E-06
 2 51 2.56750819E-04 2.28031214E-05 3.96913554E-06-6.54003243E-06 2.07659440E-06
 2 52-3.67962481E-05-3.84202707E-06 1.69258606E-05 3.39336479E-06 2.12264140E-04
 2 53 2.72975241E-06-6.11718275E-06-2.67261083E-05 1.83956288E-06-5.58928322E-06
 2 54 2.62182546E-06 2.02448041E-06 4.11091379E-06 1.64661519E-06-8.64208797E-06
 2 55 5.05976257E-05 8.91159323E-07-1.06813697E-06 4.82082042E-06-1.01418140E-05
 2 56 6.44242287E-05-1.37322684E-06-2.80813201E-06 1.63268980E-06 3.71168461E-06
 2 57-1.46366139E-05 1.71067065E-06 6.48954633E-07-9.18711718E-07 5.99533819E-05
 2 58-1.56430420E-04 1.46399395E-06-3.18599010E-05 1.61170398E-05               
 3  1-1.57568805E-06-8.10328350E-06 4.47553184E-07 2.49239458E-06-2.73122139E-06
 3  2 7.04441568E-05 2.17260558E-05 6.83538404E-06 6.15411492E-05 2.10174026E-03
 3  3 2.49569734E-04 2.65327431E-04 2.90228179E-04-3.50498246E-07-1.91091936E-06
 3  4-1.40944181E-06 2.18836239E-06 5.93418606E-07 3.45072802E-06 2.23919034E-06
 3  5 1.27510270E-05-4.57141219E-06-3.77564469E-06 7.16592735E-07-1.19961919E-04
 3  6 2.55204455E-05 3.13106867E-05 1.06923615E-05-1.53813274E-03 6.83268511E-04
 3  7 8.28763852E-04 7.48993291E-04 1.82593524E-06 1.77001082E-07 1.06334320E-06
 3  8-1.51962271E-06-4.70618130E-06-7.69162445E-07-2.71952795E-06-1.11366293E-05
 3  9-2.09926859E-06 1.78990003E-07-1.06136058E-06-3.05187311E-06 6.67849714E-06
 3 10 3.57305433E-07 1.28298630E-06-2.36484430E-06 6.79464712E-08 4.46159346E-05
 3 11 9.78397765E-07-1.62010138E-06 2.14785011E-06 1.64594913E-06-3.24656934E-06
 3 12-3.61635848E-06-4.87780648E-06-2.81967462E-06 1.04814115E-06 6.29863131E-06
 3 13 3.75699144E-07-9.29927092E-07 3.84256597E-06-7.54179090E-05-5.68762297E-05
 3 14-2.64689855E-05-4.46261958E-05-1.97980123E-04-1.09905634E-04-1.13141830E-04
 3 15-4.23282897E-05-2.33099009E-06-9.20395052E-07 4.88361072E-06-1.31535202E-06
 3 16 1.07300098E-07 8.98979733E-07-4.66812420E-06 1.99756884E-05 4.69610644E-06
 3 17 6.83134480E-06 1.73622357E-06-2.26082755E-06-7.62937119E-06 2.35445578E-06
 3 18 2.00320488E-06 1.41782891E-06 3.06886063E-06-7.74871303E-05-4.28332181E-06
 3 19-1.00627073E-06-3.84687508E-06-7.80926233E-06-3.79097177E-05-1.86076715E-05
 3 20-1.30012389E-05 1.08969824E-05 1.86441657E-04 5.09795090E-05 6.12043599E-05
 3 21-3.69006189E-05 5.36650381E-04 1.59153630E-04 6.35874382E-05-1.05446737E-04
 3 22-5.31502433E-06-1.93658476E-05-2.70159598E-05-9.05480748E-06-2.27901295E-06
 3 23 1.23610149E-05 1.28449932E-05-2.04944282E-04-4.47865975E-05 5.94034493E-06
 3 24 1.73862399E-05-5.89866046E-06-1.68174927E-04-1.21433584E-05 1.53294576E-06
 3 25 6.15618143E-06 2.77291526E-04 7.19723767E-05 2.50168634E-06 2.29475025E-05
 3 26-1.15253444E-05-3.66610376E-04-1.58363415E-05-7.83508529E-05 4.24148662E-06
 3 27 4.94000862E-04 6.21028305E-05 6.01401705E-05-1.89356630E-05 7.45826733E-05
 3 28 5.14643732E-05 6.88046891E-05 1.98082776E-06-3.39633027E-06 9.90194000E-06
 3 29-6.15204273E-06-2.64816336E-05-7.17001155E-06-4.23091764E-06 9.57468825E-06
 3 30 1.47486726E-04 1.00060384E-04 7.74405473E-05-1.76059954E-04-3.10233062E-03
 3 31 2.16082957E-04-4.78667013E-04 2.63676813E-04-1.50778392E-05-1.07918199E-05
 3 32-8.17954737E-06 4.69267752E-06 3.45100056E-06-1.31932527E-05-3.31461849E-06
 3 33-1.68570391E-05-2.11882993E-06 2.05714837E-08-5.83105684E-06 1.96285445E-04
 3 34 4.50974185E-05 6.96555831E-05 1.65714942E-05 5.43606385E-04 3.81015702E-05
 3 35 1.15534358E-04-1.29569200E-04-4.01948160E-06-3.68435372E-06-1.87570946E-06
 3 36 2.29453260E-06 1.88649391E-06-5.85651432E-07-3.54969362E-06-1.36981095E-05
 3 37 3.15011614E-06 1.11985793E-05 4.50099440E-06 1.17751678E-05-7.66458442E-05
 3 38-5.68330445E-05 3.33710318E-05 1.77566162E-03-8.42433966E-05-3.93436926E-04
 3 39-3.15660413E-04-8.25690634E-06-3.01780241E-06-6.47068813E-06 3.89614722E-06
 3 40-1.11652402E-06-4.04579330E-06 5.69337393E-06 8.39847493E-06 3.03345206E-07
 3 41 1.98602303E-06-3.25391561E-06 4.28454452E-06-6.60850692E-05-2.37435836E-07
 3 42 6.68517725E-07 3.00496432E-06 8.75247432E-06 1.39806850E-04-8.47755312E-07
 3 43-8.74368593E-08-1.28907168E-05-1.10031168E-06 3.50603983E-05-1.61792981E-06
 3 44 1.77981227E-06-2.57545839E-06 3.87176728E-06-2.69981169E-06-6.20056524E-07
 3 45-4.03946208E-08-1.85370074E-06-8.33782711E-06-3.49326851E-05 1.42295546E-06
 3 46-5.98638894E-08 1.95810447E-06 1.01221886E-05-6.19691369E-05 3.18511664E-05
 3 47 1.62887418E-05-6.17687500E-05 2.17662174E-04-2.00205449E-04-1.07134053E-04
 3 48 3.92912305E-04-4.36711825E-04 8.39884738E-05 1.79111150E-05-2.47018435E-04
 3 49 2.07044845E-04-9.40311801E-05 1.08758528E-05 1.45833551E-04-4.42314385E-05
 3 50-1.25834631E-04 2.10164447E-04 6.35409568E-05-2.11712654E-04-8.61156077E-05
 3 51 9.94567270E-01 2.09544212E-02 7.44205182E-04-7.05119667E-04-1.09006407E-04
 3 52 5.18312879E-03-6.58708627E-04 2.99573226E-04 4.21484644E-04-9.42315617E-04
 3 53 5.75427455E-04-5.75545308E-05-3.73833175E-04-4.26651658E-03-4.19964701E-03
 3 54-4.32099824E-03 1.47109582E-06 1.00101362E-04-6.33801106E-06 2.81868147E-05
 3 55-1.36455542E-05 4.29006764E-06 1.84455413E-05 8.59601280E-06 2.77798887E-05
 3 56 5.07909852E-06-1.85450491E-05-2.34458953E-06-1.11586556E-05 4.23095402E-05
 3 57 2.41220909E-05 6.79243361E-06-2.02948745E-05 1.78403557E-05 1.91210173E-04
 3 58-1.01415462E-04 6.71333646E-05-1.50036344E-04 9.77528158E-05               
 4  1 1.22013823E-05 4.41302548E-05-1.45999361E-05 1.40064170E-05 4.71185384E-06
 4  2-2.16970511E-04 9.77646290E-05-2.06529227E-04-1.61774213E-05 2.00248131E-03
 4  3 1.97388880E-04 2.67955145E-04 2.59654381E-04 2.24270423E-05 1.01318522E-05
 4  4 2.32452333E-05-1.47532601E-05 1.85570615E-06-2.01602431E-06-1.07658726E-05
 4  5-6.11008695E-05-1.87771626E-05 1.92711176E-05 2.68096889E-05 5.68366560E-04
 4  6 2.62225271E-05 3.63517631E-04-1.54001252E-04-2.55176567E-03 7.09008645E-04
 4  7 5.02980421E-04 6.51672354E-04-1.12675182E-05 2.61690868E-05-8.18689981E-06
 4  8-6.90334213E-07-2.03891752E-05 7.26403042E-06 1.73706101E-05 9.41154352E-05
 4  9-2.43731600E-06 1.61433825E-05 2.39644010E-07-1.43221315E-05-5.47759929E-05
 4 10 1.13121763E-05-4.84156856E-07-1.65912555E-07 2.51721134E-05 9.54828044E-05
 4 11-8.59281627E-06 5.34582661E-06 3.13403001E-06-1.36186259E-05 2.82195858E-04
 4 12-9.61642305E-06 2.40780590E-05-5.67776028E-06 8.75354932E-06-1.75733004E-04
 4 13-1.56729348E-04-1.76162887E-04-1.75543343E-04-1.95189293E-03-4.59764863E-04
 4 14-7.28703930E-04-2.04817870E-04 2.18105395E-03 6.35812925E-04 4.17367379E-05
 4 15 1.71906183E-04 7.74219137E-05 4.76741483E-05 7.66476370E-05 1.59973256E-05
 4 16 2.50518873E-05 4.24791803E-05-2.09458947E-05-1.81856932E-04 4.26333215E-06
 4 17 1.49048725E-05 1.09866103E-05 6.84655399E-05 2.54401846E-04 3.17154269E-05
 4 18 4.01330860E-05 7.95037944E-06 1.51513493E-04 4.81441349E-04 4.22666160E-05
 4 19 2.60736449E-05 5.13994886E-05-9.95129350E-01-2.50522550E-02 4.76890174E-04
 4 20-8.19670601E-04 1.15281273E-03 4.23351985E-03-5.86995641E-04 1.07950304E-04
 4 21-1.46114539E-03-2.77395184E-03-1.86375681E-04 7.34407741E-04 7.40711975E-04
 4 22 3.03250515E-03 2.99159011E-03 3.09190321E-03 1.32525007E-04 1.47237237E-04
 4 23 1.16527406E-04-1.51259718E-04-1.10117927E-03-1.87449358E-04-7.82927938E-05
 4 24 1.54855746E-04-1.26693542E-04-6.40567701E-04 2.05498668E-04-2.65582476E-04
 4 25-4.56148397E-05-8.57676996E-06-2.81036425E-05 7.28963764E-06 1.23879423E-07
 4 26 1.18092514E-05 1.34236187E-04-2.06239294E-07 4.63679280E-06-8.39750750E-05
 4 27-7.56211242E-04 2.74654917E-04-1.73913630E-04 1.67405537E-04-2.43023103E-05
 4 28-2.86803141E-05-2.46487770E-05 1.56399144E-06 7.69496762E-06 4.96456466E-06
 4 29-1.37285360E-05-5.41989179E-05 3.06204884E-05-1.76636924E-06 6.74747906E-06
 4 30 3.61231507E-04-1.64020716E-04-1.52521295E-04-7.16564535E-05 2.10722279E-03
 4 31-5.67611863E-04 3.36811834E-04-5.55077007E-05-1.55900026E-05-2.64209308E-05
 4 32-1.21656850E-05 1.61651734E-06-1.33039384E-06 2.64661212E-06 4.99070652E-06
 4 33 3.27901166E-05-2.08764230E-06-6.82254294E-06 9.47189302E-06-3.30156043E-04
 4 34-4.75917966E-06-7.50429852E-05 4.95614732E-05-1.17794350E-03 6.22795398E-05
 4 35-3.07465551E-04 2.52345368E-04 2.60287295E-06 1.81525681E-06-3.73304058E-06
 4 36 4.36755007E-06 1.82177352E-07 3.41829393E-06-1.39764839E-05-4.83597964E-05
 4 37 1.37287273E-05-5.25380111E-06 7.38230662E-06 3.75294356E-04 7.02144974E-06
 4 38 7.87935469E-05-1.11518196E-04-7.31427607E-04 2.00677020E-04 4.81645763E-05
 4 39 1.28534944E-04-2.62830628E-05-2.07904036E-05-2.16664092E-05-4.49524086E-06
 4 40-6.58371446E-06-5.33633709E-06 2.91253021E-06-5.34481524E-05-4.76941425E-06
 4 41-4.37556844E-06-1.09073542E-06-2.23483200E-05-7.39308555E-05 3.45805900E-06
 4 42-3.57261821E-06 3.90062476E-06 5.92256743E-06-3.82691574E-04 1.22612924E-05
 4 43 1.19158831E-05 5.62019878E-06 1.23978910E-05 1.38103294E-05-4.71218044E-07
 4 44-8.38181466E-07 3.79592597E-07-7.28985082E-06 1.52663258E-04 9.80845233E-06
 4 45 1.39913821E-07-6.60634764E-06 6.03316888E-06 5.97381188E-05-1.30717335E-06
 4 46 3.02142318E-06-6.16060571E-06 2.60450207E-07 1.83236942E-05-1.28075409E-06
 4 47-9.73780629E-07-7.21933386E-06 4.77354225E-05-1.39463270E-05 2.79071463E-06
 4 48 7.54706856E-05 6.37536985E-04 6.88308369E-05 1.36193302E-04 2.85899049E-04
 4 49-1.04358882E-04-2.49975525E-06-4.63818247E-05-6.97660467E-05 1.20109917E-05
 4 50 5.81117478E-06 6.95294532E-05-1.38174995E-05 3.80795163E-06 4.45353748E-06
 4 51-2.50706550E-07 2.17392879E-05 1.75802659E-05 5.54424049E-06-7.32903965E-06
 4 52-1.54255340E-04-4.71308602E-05-3.16889646E-05 3.63719218E-05 3.29601611E-04
 4 53-7.10442117E-04-3.35456468E-04 6.63372545E-04 1.89308192E-05-1.20875540E-05
 4 54-2.06512822E-05 4.48710216E-08-1.77136089E-06-1.59378942E-05 5.23525759E-06
 4 55 3.40490259E-05-2.07141472E-06 1.29444327E-06-3.33827478E-06 4.48748633E-06
 4 56-7.76912459E-05 1.73667031E-06-1.33291756E-06 2.05377256E-06 2.78431911E-06
 4 57 4.27345167E-07-5.02906583E-06-1.43950500E-06-9.61884771E-07-4.88377936E-06
 4 58-2.54464291E-04 2.10899778E-05 1.55841111E-06-9.73294896E-06               
 5  1-2.35202692E-05-1.28960014E-04 1.74846902E-05 1.33312927E-05 3.09760147E-05
 5  2 1.24586249E-03 3.59769524E-04 4.58761666E-04 3.24336371E-04 1.26248764E-02
 5  3 1.51747774E-03 1.54656894E-03 1.56512430E-03-1.55663923E-05-1.95473368E-06
 5  4 3.72649124E-06 2.16107476E-05 2.90360829E-05 3.07736146E-05 3.50920840E-06
 5  5 5.05195316E-05-8.87319424E-05-6.80576952E-05-7.78441657E-05-8.63631686E-04
 5  6 6.51742553E-04 9.01083185E-04 5.51091955E-04-8.09047263E-03 4.29732349E-03
 5  7 5.23953792E-03 5.04479197E-03-3.69994664E-06-1.32608649E-05-2.18055714E-05
 5  8-1.83334873E-05-3.22071759E-05-2.85502765E-05-3.65487041E-05 1.56860721E-04
 5  9 9.83455726E-06-2.18291919E-06-4.94435293E-06-2.21836315E-05 1.62603338E-05
 5 10-7.60601347E-06-4.80993503E-06 6.70915762E-07-3.34532070E-05-5.64366285E-05
 5 11-8.60796599E-06-9.23138980E-06-1.02464115E-05-1.21524394E-04 8.33507335E-04
 5 12 9.56302609E-06 1.19011554E-05-7.66024495E-06 3.82944391E-06 3.27361174E-05
 5 13-6.81331418E-06 1.91091701E-05-1.75111728E-05-2.49405761E-04-2.69295299E-04
 5 14-1.12957461E-04-2.77788509E-05-1.27275446E-03-4.14641181E-04-5.15853035E-04
 5 15-8.08639000E-04-2.67168047E-05 2.69394433E-05-1.95750072E-06 2.23923912E-05
 5 16-4.12172762E-06 1.88423308E-05-7.99290166E-05-8.97541887E-05-6.24091289E-06
 5 17-2.71577089E-05-2.28445201E-05-1.27351464E-05-4.31159028E-05 2.59884058E-06
 5 18-8.46495967E-06-3.28941236E-06 1.91618300E-05 5.64785961E-05 1.86027344E-05
 5 19 5.46097697E-06 9.85426072E-06-3.51415823E-05-1.65055614E-04-1.29048177E-05
 5 20-2.47301473E-05-1.99644835E-05 1.05522014E-03 1.12701199E-04 4.42212480E-05
 5 21 2.78388855E-04-8.90821336E-05-5.71738486E-04 5.60018468E-04 8.05055036E-04
 5 22-5.92736658E-05-4.10666460E-05-5.96396609E-05-5.16278145E-05 2.88282805E-05
 5 23-7.09486561E-06-2.11479169E-05 3.42608666E-04 1.69057876E-05-5.90137591E-05
 5 24 4.07853038E-05-6.22468752E-05-4.58901260E-04-3.08461331E-05 2.66182782E-05
 5 25-7.34081735E-06 2.61961035E-04-5.12206580E-04 1.41451505E-04-6.66139861E-05
 5 26-1.67862658E-04 1.15685984E-03-5.53531890E-04 2.69090924E-04 6.03305405E-04
 5 27-2.23511063E-03 1.59583132E-03-1.69930046E-03-1.70797061E-03-2.04590552E-04
 5 28-1.88678112E-04 2.79413286E-06 3.24291034E-06-2.29383887E-04 1.40901324E-04
 5 29-9.96145052E-01-2.74403342E-02-2.65426180E-04 1.80795473E-04 6.33750501E-04
 5 30 1.68347169E-02-9.25450605E-04 5.19414915E-04 3.57681909E-04-3.50093548E-02
 5 31 6.74470848E-03 1.33438441E-03-1.43691119E-03 1.30242301E-03 9.43566973E-04
 5 32 7.57606242E-04-8.16066748E-05 6.92811528E-04-3.05539421E-04-2.85037508E-03
 5 33-3.71901611E-04-5.32962225E-05-8.92864928E-05 7.27199865E-05-2.72938505E-03
 5 34-2.90237479E-04-4.54500161E-04 1.68065065E-04 1.91832171E-02 2.17999341E-03
 5 35 3.32198857E-03-3.01698862E-03 1.90650273E-04 2.35963535E-04 1.83550156E-04
 5 36 2.03432877E-04-1.78453668E-04-1.68587305E-04-2.81837936E-03-4.29715383E-04
 5 37 1.41737753E-05 9.22493514E-05 7.52258768E-05-2.37884395E-03 4.28339255E-04
 5 38 7.65511167E-04-2.61454908E-04 9.27827559E-03-9.07141615E-04-2.33009303E-03
 5 39-1.20156977E-03-4.37709709E-06 4.44035062E-04 9.71490095E-05 3.80119318E-05
 5 40-1.25556437E-05 1.49457089E-04 1.12079315E-04 3.69019160E-04-2.20450042E-05
 5 41 7.03789713E-05 3.61973547E-05 3.75792991E-05 1.17741349E-03 2.94931024E-05
 5 42 3.51177543E-05 1.15750049E-05 3.51060808E-05 3.66242778E-04-1.01257479E-05
 5 43 3.33622665E-05-1.85770178E-05 4.31091323E-05 8.27478405E-04-1.18925436E-05
 5 44-5.57383630E-06 7.55156915E-06 5.09783014E-05 8.63851618E-04-3.98319354E-05
 5 45-4.65843449E-05 3.54829268E-05 1.13727670E-04 4.40600654E-04-4.68053072E-05
 5 46-4.27801550E-05 2.64022062E-05 4.64673989E-07 2.67136063E-05 1.17495717E-05
 5 47-6.69281426E-07-1.06556047E-05 7.12174180E-05-1.17635140E-04-9.22221206E-06
 5 48 1.35384898E-04 1.74255036E-03-3.89655081E-04 3.00337396E-06 5.28168747E-04
 5 49-9.41780378E-04 2.21705513E-04 2.14823382E-04-4.55189117E-04 5.35733295E-05
 5 50 2.06840584E-05 4.93228886E-05-1.80561956E-05-2.70529111E-05 7.14909621E-06
 5 51-6.69926834E-06-2.38201227E-05 2.47301279E-05 1.43652413E-05-9.60341714E-06
 5 52-7.25584195E-06-1.33478208E-04-5.21231085E-05 4.09596963E-05-9.24616944E-04
 5 53-6.24718471E-04 5.03467149E-05 1.38250069E-03-3.53986127E-05-2.03022308E-05
 5 54-9.24003996E-06 1.73607556E-05 8.20203885E-06-3.00095536E-05-2.59131178E-05
 5 55 1.43347394E-04 2.82434998E-06-7.34384993E-07 9.81569202E-06-2.89593736E-05
 5 56 1.27696441E-04-3.91357543E-06-8.18091478E-06 1.82203597E-06-7.92829057E-06
 5 57-9.35761622E-06-4.13904623E-06-4.81996883E-08 3.23642279E-06-6.12893905E-05
 5 58 9.37288768E-04-1.25626984E-06-1.36845263E-05 8.83260377E-06               
 6  1-1.28797099E-04-1.57550211E-04 2.15184531E-05-1.12356238E-04-5.55017162E-05
 6  2 2.03100007E-04-3.03935170E-04 4.76376567E-04 1.33735247E-04 8.76528834E-03
 6  3 9.08698822E-04 1.15438092E-03 1.10241788E-03-3.36826925E-05-3.18666939E-05
 6  4-5.44136205E-05-1.97949067E-05 7.65661776E-06 2.07231688E-05 9.21937945E-03
 6  5 3.26678784E-04-6.39949132E-05 1.31255950E-04 5.17209172E-05 4.24170705E-03
 6  6-7.53814897E-04 1.79400328E-03 6.10852057E-04 1.12499841E-02 1.59197824E-03
 6  7 7.46906305E-03 5.06334440E-03-2.65415518E-04-3.11940640E-04-1.59975484E-04
 6  8 1.45621722E-04-1.06606779E-06-5.49470073E-05-4.14622316E-05-1.97297792E-04
 6  9 7.45587161E-06-4.57889819E-05-1.73159217E-05 1.55984838E-05 5.12343289E-04
 6 10-4.21722177E-06 3.49063266E-05 1.89571933E-05-3.22509356E-05-2.62011829E-04
 6 11 8.74998569E-06-4.53015591E-05-3.34307332E-05-1.30110654E-04-6.40732959E-04
 6 12-4.26598433E-05 3.88392669E-05-1.20120560E-05 9.95992996E-01 2.83687763E-02
 6 13 2.49723913E-04 3.14688252E-04 3.15278754E-04-1.96418483E-02-1.70500635E-03
 6 14 2.13268934E-04-6.77644843E-04-2.41711048E-02-4.74431065E-03 2.00620564E-03
 6 15-8.63694014E-04-1.19975933E-03-1.28477373E-03-1.13460219E-03 2.60036941E-05
 6 16-5.78912774E-05-1.10460547E-04-1.01540580E-04-1.04049106E-03-3.89595430E-05
 6 17 2.81117906E-05-6.39402095E-06 1.01573450E-04 2.96744480E-03-1.26329005E-04
 6 18-1.03492790E-04 1.25056626E-04 1.04185188E-04 2.85455841E-03-4.66550200E-06
 6 19 8.91103669E-05-1.87714474E-04-1.57068844E-04 2.43294954E-04-8.64715440E-05
 6 20-9.95726375E-05-5.92851444E-05 2.13403771E-03-4.43506506E-04-6.05637117E-04
 6 21-8.49762680E-04 1.15695781E-02-1.22350007E-03-2.24279473E-03-2.07716608E-03
 6 22-1.65501754E-04-1.61381255E-04-1.71537456E-04-1.47955160E-04-1.90844739E-04
 6 23-2.04595542E-04-9.18499532E-05-6.79481434E-04-5.33447980E-05-7.85825561E-05