 $CONTRL SCFTYP=RHF MULT=1   MAXIT=100  $END
 $DFT    DFTTYP=M06-2X  $end
 $SCF DIRSCF=.TRUE. $END
 $CONTRL RUNTYP=NEBPATH  $END
 $CONTRL MAXIT=200       $END
 $BASIS GBASIS=N31 NGAUSS=6 NDFUNC=1 NPFUNC=1 DIFFSP=.TRUE. $END
 $GUESS  GUESS=MOREAD  NORB=289  $END
 $SYSTEM TIMLIM=500000 MWORDS=80 MEMDDI=500 $END
 $NEB   MORINT=.TRUE.  MAXCYC=50  $END
-----------------------------------
 TOTAL NUMBER OF BASIS SET SHELLS             =  108
 NUMBER OF CARTESIAN GAUSSIAN BASIS FUNCTIONS =  289
 NUMBER OF ELECTRONS                          =   92
 NUMBER OF OCCUPIED ORBITALS (ALPHA)          =   46
 NUMBER OF OCCUPIED ORBITALS (BETA )          =   46
 TOTAL NUMBER OF ATOMS                        =   29
------
Nstep=   62  Energy =     -734.5776686443  gRMS =   0.0000323
----- RESULTS FROM SUCCESSFUL RHF      GEOMETRY SEARCH -----                    
 $DATA
Reactant...
C1
C           6.0  -7.8608255018   1.9725828060  -2.0311133129
C           6.0  -7.0978804664   2.9210748181  -1.1097653866
H           1.0  -8.7168284057   1.5261741176  -1.5134378450
H           1.0  -7.2207825630   1.1587087043  -2.3815365905
H           1.0  -8.2430543497   2.5002369149  -2.9112977216
H           1.0  -6.6921151931   2.3761509317  -0.2502036207
C           6.0  -7.9742210774   4.0626160967  -0.6080625483
H           1.0  -6.2327400661   3.3441882746  -1.6367422655
H           1.0  -8.8071371443   3.6491947442  -0.0241989949
H           1.0  -8.4195537385   4.5769079145  -1.4759031841
N           7.0  -7.2063947144   4.9609126256   0.2593532238
H           1.0  -6.4283341206   5.3608111776  -0.2676428866
H           1.0  -7.7878212108   5.7367808497   0.5638841311
O           8.0  -4.3972605056   3.3695617300   0.8262730597
C           6.0  -5.0170087161   3.7416631698   1.8106816681
C           6.0  -5.9197858031   2.8000314776   2.5597582209
C           6.0  -4.8871592981   5.1444655887   2.3452211710
H           1.0  -4.1736283436   5.1286646955   3.1780094584
H           1.0  -5.8481353609   5.4985357106   2.7235259337
H           1.0  -4.5153701592   5.8145856959   1.5683618456
H           1.0  -5.7459586190   1.7724323903   2.2399002866
H           1.0  -6.9479567527   3.0950553127   2.3206812881
H           1.0  -5.7819534606   2.8964715190   3.6406386580
SI         14.0  -3.7308092573   5.3638137160  -2.5457582470
O           8.0  -4.4052263193   5.3739125741  -1.0235020325
H           1.0  -4.1797529667   4.1839026242  -3.3306214232
H           1.0  -2.2468463832   5.3455306562  -2.4870590790
H           1.0  -4.1873697762   6.6025636311  -3.2149741250
H           1.0  -4.2135153167   4.6204754927  -0.4278795415
 $END

Product...
Nstep=   57  Energy =     -734.5907293729  gRMS =   0.0000154
----- RESULTS FROM SUCCESSFUL RHF      GEOMETRY SEARCH -----                    
 $DATAPD
C           6.0  -7.9216234254   2.0875950405  -2.0074007403
C           6.0  -6.8354984940   2.7574686583  -1.1684252268
H           1.0  -8.7017597738   1.6564295334  -1.3707079416
H           1.0  -7.5072587338   1.2807296890  -2.6168106225
H           1.0  -8.4008269493   2.8048304427  -2.6822968825
H           1.0  -6.3341862391   2.0226639593  -0.5326339868
C           6.0  -7.4211801612   3.8744629584  -0.3086859167
H           1.0  -6.0584426516   3.1797573148  -1.8173157240
H           1.0  -8.1671312158   3.4539493283   0.3830041507
H           1.0  -7.9565659024   4.5759010835  -0.9602899694
N           7.0  -6.4026901290   4.6664154467   0.3998351757
H           1.0  -5.1170197025   5.1565153561  -0.6410392690
H           1.0  -6.8463685069   5.4931168731   0.7933685127
O           8.0  -4.6637293160   3.1489227163   0.9055747099
C           6.0  -5.6264441540   4.0030385764   1.4801473589
C           6.0  -6.4774675222   3.1181753614   2.3844568856
C           6.0  -4.9416164094   5.1127419097   2.2797498380
H           1.0  -4.2807323753   4.6597594967   3.0217114074
H           1.0  -5.6717123070   5.7413776769   2.8007593875
H           1.0  -4.3427326686   5.7390379992   1.6111132934
H           1.0  -6.8824803155   2.2700534427   1.8272057440
H           1.0  -7.3024258536   3.6887057520   2.8224076523
H           1.0  -5.8532644197   2.7235774602   3.1894623180
SI         14.0  -3.9361556643   5.5890384772  -2.6113076622
O           8.0  -4.1882860878   5.2304297296  -1.0106608803
H           1.0  -4.6535826977   4.6365961349  -3.5018333571
H           1.0  -2.4808457271   5.4934739153  -2.8617752965
H           1.0  -4.4048749328   6.9599768041  -2.9445298539
H           1.0  -4.1139431043   3.6685682033   0.2952176754
 $END


E=     -734.5776686443, E(NUC)=  667.0497426292           
 $VEC
 1  1 3.08173015E-06 9.32844709E-06 6.78656873E-06 7.28122014E-06 3.21831082E-06
 1  2-4.89066425E-05-4.87005486E-05-4.65405850E-05-3.17951470E-05-3.25560588E-03
 1  3-4.29106146E-04-4.37020379E-04-4.17847334E-04 7.47604521E-06 6.63929272E-06
 1  4 6.15684884E-06-9.04313941E-07-2.40282447E-06-2.83024608E-06 4.99170205E-08
 1  5 6.59378757E-06-2.11438580E-07-7.46468253E-06-5.25182768E-06-5.59887836E-05
 1  6-2.28698444E-05-5.57797968E-05 1.98641365E-05 1.91437726E-03-8.40152583E-04
 1  7-1.32528609E-03-1.26363367E-03-1.65682218E-06-5.19645736E-06 5.32805274E-07
 1  8 1.08795042E-06 3.05821849E-08 1.08136191E-06-1.45422659E-06-3.26024744E-05
 1  9-2.31168366E-06-7.41032906E-07 2.90629385E-06 2.03125734E-06-1.08277750E-05
 1 10 2.57739578E-06-3.32297228E-07-6.14424471E-07 3.51918078E-06-1.94247543E-05
 1 11 1.07552995E-06 2.68378524E-06-1.55869355E-06 2.56416302E-06-1.91124009E-07
 1 12-2.52191476E-06-2.15648218E-06 2.29278320E-06-3.00790671E-06-8.14938390E-06
 1 13-7.72781658E-06 8.67917436E-07 4.97723709E-06 7.46438567E-05 6.88164965E-05
 1 14 2.74812069E-06-5.06901653E-05 7.12229433E-04 2.12246884E-04-6.05478059E-06
 1 15 6.34219551E-05-5.66070044E-06-4.25760636E-06-9.62492544E-06-3.91392583E-06
 1 16 2.89942950E-06-5.56779671E-07 4.25075702E-06 1.74358251E-04 1.13631138E-05
 1 17 1.07995268E-05-2.89633206E-07 9.24931677E-06-4.21399218E-06 9.26642422E-07
 1 18 2.07809155E-06-9.93152857E-07-4.38729357E-06-5.55651144E-05-6.37140422E-06
 1 19 7.56629596E-07 1.81006004E-06 8.48029773E-06 3.33249242E-05 5.84704411E-06
 1 20 7.46054825E-06-1.63524920E-06-2.45380387E-04-7.59835697E-05-5.63199345E-05
 1 21 5.76886251E-05 2.36238815E-04 2.61725893E-06-1.39855390E-04-7.42434199E-05
 1 22 1.11599096E-05 1.86423158E-05 1.78395004E-05 8.31350567E-07 9.49765130E-06
 1 23 1.54465097E-06 2.26571756E-06 2.23452647E-04-3.58138251E-06-9.53681721E-06
 1 24-8.97933916E-06 1.00822051E-05 3.52107345E-05 6.63204885E-06 2.69316957E-06
 1 25-7.02113556E-07 2.07613932E-06 1.24845070E-05-2.96444117E-06-4.42037536E-06
 1 26 5.35194948E-06-6.19692021E-05 1.83595764E-06 2.71038540E-05 7.41471090E-06
 1 27 5.93504815E-04-1.60610617E-04 1.97403515E-04-1.58854591E-04-2.92328137E-06
 1 28 6.00189710E-06 8.73395151E-06-9.59097708E-07-6.04052843E-07-9.05789693E-06
 1 29 6.20674532E-06 2.31083135E-05 5.50698161E-06 8.61396670E-06-1.51448524E-05
 1 30-1.44474977E-04-7.04976838E-05-5.00921846E-05 1.88052819E-04 1.29087053E-04
 1 31-2.27772484E-05-1.66105431E-04 1.59509361E-06 1.23611254E-05 1.33132088E-05
 1 32 4.93901221E-06 1.25290242E-06-1.06211323E-06-2.22006151E-07 1.19538343E-06
 1 33 9.95534976E-06-1.17835386E-06-2.64456538E-06 6.81292486E-06-1.29768860E-04
 1 34-3.60175648E-05-3.73973673E-05-2.49556880E-05-3.34702807E-05-2.55468096E-05
 1 35 2.34573529E-05-2.98049664E-05-1.95021805E-06-1.21806882E-06-1.48582507E-06
 1 36-4.47705973E-06-4.50146229E-07 7.00688825E-07 6.18177799E-06 2.11221963E-05
 1 37-2.16687763E-08-4.83741916E-06-6.21337798E-06-1.04283850E-04 2.98702089E-05
 1 38 4.23009255E-05 4.43219595E-06-2.41906916E-05 5.39432106E-07 2.53364312E-05
 1 39 2.50010462E-05 1.25793123E-05 8.07661196E-06 1.12887924E-05-1.27843234E-06
 1 40 1.87195993E-06 2.75519236E-06-1.61305126E-07 1.68024654E-05 2.17219068E-06
 1 41-6.76357242E-07 7.71165328E-07-4.46015221E-06 7.38239116E-05-4.65405062E-07
 1 42-1.90123686E-06-4.10692183E-06-1.43707483E-06-7.51315440E-05 1.27306663E-06
 1 43 4.47342482E-07 7.43817488E-06-3.34661444E-06 9.44480803E-06 1.05918577E-06
 1 44 7.33786206E-07 1.51258140E-06-4.09450813E-06 2.79888835E-05 1.09870009E-06
 1 45 2.22558977E-07 8.43749070E-07 9.13748786E-06 2.33637555E-05-1.09354025E-06
 1 46-7.07008767E-07-1.20719730E-06-9.96723988E-01-1.30387693E-02 8.07946242E-06
 1 47 9.18953357E-07-1.45920906E-05 2.04309322E-02 4.50147679E-05-4.24970918E-06
 1 48-1.23421103E-04-1.28372674E-03-3.22630510E-04-6.16192022E-05 6.02545777E-04
 1 49 6.15046955E-04 6.62565850E-05 1.83753163E-05-1.16366924E-04-7.29776056E-03
 1 50-7.28065549E-03-7.37812417E-03 5.70278370E-06 4.17129020E-05-1.70663252E-06
 1 51-3.19953809E-05-7.25191928E-05 3.22014071E-05-3.43938856E-06-6.40291216E-05
 1 52 5.27454938E-04 1.58674144E-04-9.75076544E-05-2.65257844E-04-1.36402332E-03
 1 53-3.40701732E-04 9.02649627E-05 8.18904619E-04-9.52952436E-05-8.23231425E-05
 1 54 2.05380854E-05-2.17664564E-05-6.04988760E-05-1.80517786E-05 8.79272965E-05
 1 55-2.38965890E-04 4.01072597E-05 1.07321908E-04 7.66641964E-05 8.55383907E-05
 1 56-2.05669040E-04-1.39203147E-04 2.57497287E-06-3.62643533E-06 8.88842840E-05
 1 57-2.19093247E-04 4.11227829E-05-1.13227778E-04 6.63923931E-05-3.92147380E-05
 1 58-2.24635143E-04-2.58563302E-05-1.26656507E-05 7.70467794E-05               
 2  1 4.01182543E-06 2.04508588E-05 6.89477524E-07 9.98922419E-07-4.16594340E-07
 2  2-1.89723327E-04-5.40373068E-05-6.58790972E-05-7.14298514E-05-5.37942736E-03
 2  3-6.84969728E-04-6.66859329E-04-6.75490967E-04 6.48766159E-06 2.50072721E-06
 2  4 1.13086907E-06-1.89263286E-06-1.99010892E-06-5.20778676E-06 8.30597880E-06
 2  5 4.19983400E-05 1.54780959E-05 1.15559354E-05 1.22610617E-06-1.88524612E-04
 2  6-1.64029387E-04-1.63662330E-04-1.13851415E-04 3.84296184E-03-1.53270724E-03
 2  7-2.27807349E-03-2.12691880E-03 3.87414913E-06 1.25785987E-05 4.96696582E-06
 2  8-1.30406394E-07-1.59866123E-06 9.94408086E-06 5.11361308E-06-2.32887542E-05
 2  9-2.33358720E-06 3.09353708E-07 7.59920874E-07-4.76778537E-07-7.02040003E-06
 2 10 1.01963699E-06 1.81290374E-06 2.07773050E-06 5.72007363E-06-3.23364348E-05
 2 11-1.91499903E-06 1.07007238E-06-6.59417717E-07-9.54861784E-06 1.86824067E-04
 2 12-2.01272213E-05 3.31322632E-06-1.04531230E-05 3.65894881E-07-5.99288425E-06
 2 13 7.26216682E-06 4.82718134E-06 6.79644944E-06 4.73412541E-05 4.02880005E-05
 2 14-1.13283718E-05-2.20472310E-05 2.84899459E-04 7.70793161E-05 3.39142514E-04
 2 15 1.62340069E-04 1.04313220E-05 1.48455550E-07 5.96198184E-06-4.56148505E-06
 2 16 5.70384227E-07-4.29402392E-06 1.19545394E-05 2.01219014E-04-1.08555036E-05
 2 17 1.34327455E-06-5.87940089E-06-4.78041349E-06-3.00040586E-05-2.75589700E-06
 2 18-8.09092657E-07 4.49033724E-07 8.28574019E-07-1.06950984E-04-8.08822842E-06
 2 19 1.46145040E-06-4.95674376E-06 1.08278138E-05 5.15241952E-05-3.49687124E-06
 2 20 2.19392152E-06-1.72932856E-06-3.33876878E-04 5.77459743E-05 9.52027327E-06
 2 21-3.08616144E-05 2.29730618E-03 6.89061318E-04-7.17635416E-04-1.55656067E-04
 2 22 1.58970927E-05 1.29222930E-05 2.45234112E-05 1.85336970E-05-6.48786727E-06
 2 23-2.69408406E-06 5.41416254E-06-2.58150024E-04-3.25757160E-06 1.90323490E-05
 2 24-1.17932166E-05 1.57609237E-05 7.03364141E-05 5.06434211E-06-9.95052584E-06
 2 25-5.14166353E-06-9.93892320E-01-2.24214391E-02 6.77466315E-04-5.15522947E-04
 2 26-1.13438542E-03-8.70190680E-03-5.51794054E-04 3.95866367E-04 1.06024855E-03
 2 27 6.50525726E-03-4.68764163E-04 2.13871501E-04-4.72113920E-04 6.08926364E-03
 2 28 6.05060108E-03 6.06974138E-03-1.43480942E-05 2.63023425E-05-7.30265670E-06
 2 29-3.62148696E-06-4.49092178E-04-1.34276596E-04 8.31240822E-05 1.78796854E-04
 2 30-1.25596046E-03-3.06240611E-04 1.77679928E-04 6.81729556E-04-8.28210389E-03
 2 31 6.88768042E-04-1.69579357E-04 1.82998982E-03 2.08332283E-04 1.25952895E-04
 2 32 3.42506394E-04-7.52851752E-05-1.41842031E-04 8.54048458E-05 1.18278897E-06
 2 33-5.36869277E-05 2.62052276E-05 4.23426928E-06-2.17925579E-05 1.31980566E-06
 2 34-1.61174152E-06-1.27993400E-04-1.63811294E-04 2.76744504E-03 1.70438399E-04
 2 35 3.37268987E-04-8.60374354E-04 5.61364226E-05-3.88519338E-05 8.57297662E-05
 2 36-2.24642674E-05-6.20369026E-05-1.46943739E-05 5.43361847E-06-3.60725478E-05
 2 37 9.46822481E-06-2.49326211E-05-2.74655608E-05-6.71994428E-05 1.16438347E-04
 2 38 4.81201176E-05-1.20732876E-04 2.14249363E-03-9.83962821E-05-3.32555746E-04
 2 39-5.99856132E-04 1.92564000E-05 2.02644785E-05 8.23611346E-05-5.55986914E-05
 2 40-1.33317326E-05 7.04421487E-05-5.61739742E-06 4.26791621E-05-2.29829340E-06
 2 41-1.05014111E-06 1.13154054E-05-1.78333599E-06 1.52588333E-04-1.26421543E-05
 2 42-1.58021141E-05 5.15995458E-06-1.33240674E-05-4.28137083E-05-7.04642942E-06
 2 43 1.28516195E-05 1.68608983E-05-1.71751866E-05-8.21778130E-05-1.33195947E-05
 2 44 3.63433611E-07 1.74704162E-05-1.51487745E-05 8.75867682E-05-3.90484274E-06
 2 45 9.81865350E-06 5.75178176E-06 7.84559804E-06 7.60054991E-05 4.48571222E-06
 2 46 1.40956955E-05 7.69820846E-06-3.02369137E-07 1.60029703E-06-9.59336514E-07
 2 47 2.21754037E-06-1.64364234E-06-1.59083123E-05 5.43327914E-06-1.84260612E-05
 2 48 2.12026668E-05-8.33249708E-05-1.06245321E-04 1.91878070E-05-3.63699038E-05
 2 49 8.65642497E-05 5.15069434E-05-3.42496365E-05 4.98167936E-05 1.03961265E-05
 2 50 8.16620566E-06 1.22292943E-05 6.72396554E-06-4.03703249E-06-9.41433332E-06
 2 51 1.56461168E-04 2.59259669E-05 3.51925036E-06-1.00326789E-05 2.75114815E-06
 2 52-1.71496430E-05 9.31035021E-06 2.35797870E-05 4.51516249E-06 3.33829766E-04
 2 53-5.65262732E-06-1.81265745E-05-4.54677322E-05 1.80821793E-06-6.77592351E-06
 2 54-1.33685084E-06-2.19504594E-06 8.01884142E-06-4.62550424E-07-9.25211926E-06
 2 55 6.21374834E-05 5.92146649E-07-3.30606499E-06 7.91709650E-06-1.13477464E-05
 2 56 7.12264673E-05-1.28677883E-06-2.96191925E-06 2.72251697E-06 3.66480902E-06
 2 57-1.43827555E-05 2.69802046E-06-3.15252817E-07-1.55649349E-06 1.03920335E-04
 2 58-3.30621683E-04-1.30725795E-06-6.57106589E-05 4.23609465E-05               
 3  1 2.58368748E-06 1.35590675E-05 8.98980990E-08-2.53871552E-06 3.58864165E-06
 3  2-1.23219527E-04-4.12461793E-05-2.32384770E-05-9.19990825E-05-3.76725622E-03
 3  3-4.65961564E-04-4.89308358E-04-5.04404469E-04 1.54038052E-06 2.96525989E-06
 3  4 1.18139688E-06-4.04303220E-06-1.50868103E-06-5.04252112E-06-1.23685714E-06
 3  5-9.66782911E-06 7.76796299E-06 5.70549874E-06 9.08979863E-07 1.22801772E-04
 3  6-5.98294677E-05-7.77891622E-05-3.66260952E-05 2.29434992E-03-1.05927358E-03
 3  7-1.56638013E-03-1.44416483E-03-5.72067697E-07 1.51162104E-06 8.41001398E-07
 3  8-4.07656475E-08 8.10398435E-06 2.98439579E-06 3.59944391E-06 1.60602958E-05
 3  9 2.71338903E-06 1.06119429E-07 1.65659579E-06 3.65894802E-06-1.15609952E-05
 3 10 9.29591740E-08-2.04393563E-06 2.78664478E-06 1.67223764E-07-5.50487041E-05
 3 11-1.54734188E-06 2.22381259E-06-2.27875309E-06 2.68678230E-06 2.42119615E-05
 3 12 6.41151218E-06 8.04650499E-06 4.29255168E-06-2.79527548E-06-1.46026131E-05
 3 13-2.19553840E-06 3.38911424E-07-4.77474124E-06 1.42213278E-04 1.04853470E-04
 3 14 3.80907545E-05 5.99207521E-05 8.61914229E-04 2.70370315E-04 1.00977992E-04
 3 15 5.41560891E-05 1.38330158E-06-2.01213966E-06-6.56134686E-06 6.78376102E-07
 3 16 1.06891383E-06 1.75200307E-10 2.82374769E-06-3.98091740E-06-1.11251836E-05
 3 17-1.17005438E-05-6.78873908E-07 9.04416077E-07 2.51914718E-05-2.08395978E-06
 3 18-1.09386488E-06-2.59260595E-06-2.55332882E-06 8.03096449E-05 4.54743001E-06
 3 19 9.86589547E-07 4.25719349E-06 8.24394848E-06 4.36105387E-05 2.12879749E-05
 3 20 1.64374771E-05-1.11532095E-05-1.98994023E-04-3.17397480E-05-4.88791197E-05
 3 21 2.10019355E-05-5.85175407E-04-1.13859985E-04-7.57194053E-05 1.43475231E-04
 3 22 1.80716272E-06 2.32592712E-05 2.94894200E-05 1.54834720E-05 4.57835330E-07
 3 23-2.09658256E-05-1.57231175E-05 1.31756311E-04 7.11457517E-05-5.76578688E-06
 3 24-2.77259511E-05 7.61402049E-06 1.99610558E-04 1.42108808E-05-4.77656778E-06
 3 25-7.17402194E-06-1.80203751E-04-8.03747164E-05-3.35207196E-06-3.01964637E-05
 3 26 1.44573053E-05 4.28574059E-04 1.46526315E-05 7.10236942E-05 2.36818020E-05
 3 27-5.87264354E-04-1.75570826E-04-1.40488527E-04 7.28376695E-05-8.59958691E-05
 3 28-6.52701785E-05-8.44179710E-05-3.31013473E-06 3.92771870E-06-7.69525777E-06
 3 29 6.84295438E-06 3.44287346E-05 9.89452196E-06-2.99037528E-06-6.17462174E-06
 3 30-1.80418448E-04-1.21133282E-04 9.94692808E-06 2.22730156E-04 4.81759932E-03
 3 31-2.09646989E-04 7.83998215E-04-2.85565939E-04 1.58664471E-05 1.15824209E-05
 3 32 4.68159913E-06-6.69128362E-06-1.83480208E-06 2.05150417E-05 3.66828851E-06
 3 33 1.77154151E-05 6.64391216E-06 2.28108855E-07 6.90072526E-06-2.17019137E-04
 3 34-5.38055961E-05-7.76142954E-05-5.21603432E-05-9.13669766E-04-1.22519887E-04
 3 35-2.16878906E-04 1.83089016E-04 7.21520390E-06 3.10159277E-06 1.50387755E-06
 3 36-2.22561409E-06-3.26731095E-06-6.53086673E-07 6.63628772E-06 3.18226538E-05
 3 37-4.88490769E-06-1.40601176E-05-1.32557852E-06-1.41778533E-04 9.93725819E-05
 3 38 9.96327574E-05-1.21517325E-05-2.98652303E-03 1.05759309E-04 6.41079845E-04
 3 39 5.59036490E-04 1.19110942E-05 4.00087802E-06 2.80970931E-06-5.34762118E-06
 3 40 2.41874008E-06 3.73833917E-06-6.68914583E-06 2.12880582E-05-6.75814836E-07
 3 41-3.16049091E-06 1.06779379E-06-4.85842295E-06 1.23721783E-04 9.65475819E-07
 3 42-1.89985769E-06-5.33451281E-06-2.34381252E-05-1.15248836E-04-2.85948933E-06
 3 43-3.35686511E-06 2.23897068E-05 1.28158198E-07-4.01606478E-05 1.27337863E-06
 3 44-2.16783913E-06 5.00547169E-06-1.02559225E-05 2.31839769E-05 1.85125064E-07
 3 45 3.65705365E-07 1.94711771E-06 8.18587795E-06 7.64056545E-05-1.38511594E-06
 3 46-3.00978921E-07-4.04933117E-06-8.57923155E-06 7.52344497E-05-3.02885079E-05
 3 47-1.01477234E-05 7.67405434E-05-1.32759601E-04 1.73278436E-04 7.21336570E-05
 3 48-4.48172163E-04 3.37861758E-05 3.28807681E-05 5.85143622E-05 9.38394955E-05
 3 49-2.89552882E-04 9.91310134E-05-4.89171458E-05-1.89722558E-04 8.38543113E-05
 3 50 1.67477901E-04-3.57549710E-04-3.40814808E-05 2.34944127E-04 5.18087617E-05
 3 51-9.93917376E-01-2.25437623E-02-5.62698318E-04 7.88912085E-04 1.86407914E-04
 3 52-8.16676589E-03 5.84943483E-04-4.01955233E-04-5.53364960E-04 2.29172770E-03
 3 53-5.51721548E-04 3.44476000E-05 3.37209558E-04 5.98283092E-03 5.93542583E-03
 3 54 6.07156325E-03-5.94222946E-06-8.14764007E-05 4.10623764E-05-5.06133334E-05
 3 55 3.65856608E-05-7.15918218E-06-2.68363891E-05-2.15133192E-05-4.66196650E-05
 3 56-9.91842545E-06 3.59026500E-05-2.81175771E-06 1.22457030E-06-6.27993574E-05
 3 57-3.43152667E-05-6.50653846E-06 3.05108752E-05-3.06130922E-05-2.38517761E-04
 3 58 2.27293622E-04-4.85679108E-05 1.24660117E-04-6.19072888E-05               
 4  1-1.14979870E-05-4.60504585E-05 1.58620564E-05-1.12217189E-05-5.03893969E-06
 4  2 2.11371397E-04-9.54254500E-05 1.98822429E-04 3.46643942E-05-9.14314075E-04
 4  3-4.62303444E-05-1.19261393E-04-1.44882805E-04-2.06498224E-05-5.43770466E-06
 4  4-2.02531339E-05 1.64047404E-05 2.21195946E-06 4.80050815E-06 1.35510698E-05
 4  5 1.04662215E-04 1.54399558E-05-1.43287450E-05-2.84200873E-05-6.33636052E-04
 4  6-2.28796979E-05-3.84372576E-04 1.24245942E-04 4.35572822E-04-2.72312250E-04
 4  7-3.65707842E-04-3.30972570E-04 1.56265321E-05-4.41478104E-05-4.40474781E-06
 4  8-3.70818317E-06 1.25954093E-05-2.68167684E-05-1.59801869E-05-7.67530021E-05
 4  9 4.05702085E-06-1.62972757E-05-2.11774110E-06 1.38905467E-05 6.45804878E-05
 4 10-1.07059021E-05 2.90721333E-08 2.05773489E-06-2.41639260E-05-8.84157943E-05
 4 11 8.58976985E-06-4.37287042E-06-4.00793300E-06 1.82823502E-05-1.45815101E-04
 4 12 1.11524568E-05-6.45935514E-06 1.01234069E-05-2.43632747E-05 3.12426727E-05
 4 13 1.37833210E-04 1.76300641E-04 1.75375481E-04 1.73006777E-03 4.32460244E-04
 4 14 6.69226287E-04 1.13234455E-04-4.66095526E-04-2.05489146E-04-3.74012776E-04
 4 15-2.07720890E-04-3.68636651E-05 1.41589657E-05-2.81597881E-05 2.89902663E-05
 4 16 1.94714030E-05 2.09229825E-05 2.65660804E-05 3.24475477E-04-3.41722504E-06
 4 17-3.66187168E-06 1.99201083E-06-5.33366955E-05-1.72709341E-04-4.16470554E-05
 4 18-5.76880907E-05-2.04008613E-05-1.26990235E-04-4.72333687E-04-5.41596005E-05
 4 19-3.64391207E-05-5.77013577E-05 9.94006146E-01 2.95993569E-02-5.54248394E-04
 4 20 7.96836817E-04-1.06014825E-03-3.49858512E-04 7.61645702E-04-1.19177979E-04
 4 21 1.33434395E-03 1.30071721E-03-1.58349158E-04-1.57440217E-04-6.38553454E-04
 4 22-5.78866278E-03-5.78883172E-03-5.93222298E-03-9.07269866E-05-1.76156852E-04
 4 23-2.07373438E-05 1.79040813E-04 4.74718209E-04 1.43399417E-04 8.88475352E-05
 4 24-1.50178341E-04 1.83757957E-04 1.10083982E-04-1.90172810E-04 2.19308857E-04
 4 25 3.73671060E-05 4.53550234E-06 7.97450021E-06 3.39864857E-06-3.35087097E-06
 4 26-1.28187830E-05-4.26763081E-05-7.71743594E-05 2.22063801E-05 1.16651082E-04
 4 27 1.00615046E-03-3.16057225E-04 1.86487825E-04-1.87703494E-04 2.40309841E-05
 4 28 1.26295001E-05 8.68699117E-06-9.32489909E-06-9.47960274E-06-1.71416562E-06
 4 29 1.77067413E-05 6.21286112E-05-4.49502846E-05 2.10897969E-05-6.70096443E-06
 4 30-5.07092145E-04 1.72693708E-04 1.66642637E-04 1.28021744E-04-3.53636198E-03
 4 31 9.74099404E-04 1.98013173E-05-8.41416837E-05 3.20366633E-05 3.69034130E-05
 4 32 1.59376267E-05-5.47022204E-06 3.89364552E-06-5.82770226E-06-9.80299628E-06
 4 33-5.91620209E-05 1.07620093E-06 4.84028956E-06-1.15618552E-05 4.77398356E-04
 4 34 9.63369509E-06 1.35924221E-04-8.64008169E-05 2.64060026E-03 1.65694547E-04
 4 35 5.66419857E-04-4.45233921E-04-9.26093261E-06-4.17784953E-06 4.76154370E-06
 4 36-6.75502574E-06 2.91614156E-06-8.66781986E-06 1.79348658E-05 4.98711531E-05
 4 37-2.46196635E-05-1.73562670E-06-2.22133402E-05-3.58152065E-04 1.90925448E-05
 4 38-7.07592976E-05 1.32261764E-04 5.47918924E-04-2.24154726E-04 5.51206771E-06
 4 39-1.15063880E-04 4.25987516E-05 2.99815398E-05 4.04837795E-05 5.67645466E-06
 4 40 1.54475103E-05 6.34592891E-06-1.25714446E-05 4.29373187E-05 9.74194999E-06
 4 41 1.88668180E-06 6.85341282E-06 3.05116628E-05 1.40425413E-04-1.01066758E-05
 4 42 3.55633879E-07-1.00652542E-05 5.81618051E-06 3.66612339E-04-2.05874979E-05
 4 43-1.17539422E-05-1.03046713E-05-1.17171258E-05-2.74549528E-05 6.78821688E-07
 4 44-6.59376110E-07 2.38868423E-06 6.42256698E-06-1.52020121E-04-1.43351578E-05
 4 45 2.37419496E-06 2.29244023E-06-8.82278060E-06-8.99329722E-05 1.58404432E-06
 4 46-6.12982947E-06 9.27912830E-06-1.57888244E-07-1.18548689E-05 3.19127693E-06
 4 47 3.22258924E-06 2.51247436E-06-3.57513588E-05-1.03374890E-05-2.33133154E-05
 4 48-3.25233560E-05 3.77723969E-05-1.35217105E-04-1.79084689E-04-2.21467201E-05
 4 49-7.54089455E-05 5.16481772E-05 6.07633520E-05-2.95425506E-05-1.79824608E-07
 4 50-4.53342720E-06-4.22490088E-05 1.83745264E-05-5.04870390E-06-1.47053066E-05
 4 51-4.59622969E-06-4.16899619E-05-1.07182952E-05-3.20077107E-06 5.82242595E-06
 4 52 2.30311834E-04-5.54713140E-07 2.53875515E-05-3.22781682E-05-6.13560465E-04
 4 53 3.34191106E-04 3.14687000E-04-3.13109906E-04-1.57400380E-05-1.06965545E-05
 4 54-8.83140037E-07-2.43628025E-07-3.97672922E-07 1.52725637E-05-2.23883147E-06
 4 55-4.61149512E-05-8.86102007E-07-2.34804173E-06 2.45899865E-06-4.10661312E-06
 4 56 3.01192387E-05-4.61895841E-07 2.85565557E-06-6.02864952E-07-5.50870116E-06
 4 57 1.80230045E-05 3.77458055E-06-3.75124490E-07 5.55934692E-07 5.90349169E-07
 4 58 2.50649531E-04-1.65307082E-05 5.36152346E-06 5.94699661E-07               
 5  1-3.00624569E-05-1.54496836E-04 2.57736010E-05 1.79423922E-05 4.28008878E-05
 5  2 1.51098837E-03 3.72947235E-04 5.33128855E-04 3.93731848E-04 1.19504624E-02
 5  3 1.44341280E-03 1.46473133E-03 1.39963280E-03-1.58175062E-05-4.52399989E-06
 5  4 7.75275350E-06 2.25709213E-05 3.42530047E-05 3.53537377E-05 7.22359379E-06
 5  5 5.93792063E-05-9.05685958E-05-1.05736074E-04-9.16475390E-05-1.21271834E-03
 5  6 7.28385539E-04 1.12541677E-03 5.99552141E-04-7.81851338E-03 4.03956400E-03
 5  7 4.95061287E-03 5.09570310E-03 5.47251675E-07-1.35292169E-05-2.66939997E-05
 5  8-1.86686654E-05-2.57250224E-05-3.00296662E-05-4.02628698E-05 1.14046768E-04
 5  9 8.21601499E-06-3.46922158E-06-5.86038167E-06-2.91899865E-05 2.07278364E-05
 5 10-6.90388084E-06-5.72266608E-06 6.36203083E-07-4.39102369E-05-7.49665519E-05
 5 11-9.36790890E-06-9.35413481E-06-1.37550711E-05-1.23108275E-04 1.23728954E-03
 5 12 4.20945320E-06 1.64386991E-05 2.47945295E-06-2.21736895E-05-4.68144508E-05
 5 13-2.65086271E-05 3.32039357E-05-3.71494764E-05 2.60162660E-04 1.51915736E-05
 5 14-2.28584886E-04 2.66880855E-04-5.69948630E-04-2.18652401E-04-6.74903921E-04
 5 15-8.22336523E-04-5.03221586E-05-1.85950138E-06-3.20158932E-05 2.58151388E-05
 5 16 7.05301299E-06 2.87052470E-05-9.48692387E-05 3.56944551E-05-5.03294105E-06
 5 17-3.15923836E-05-2.42531759E-05-3.78281070E-05-5.94382782E-05-5.74819936E-06
 5 18-5.14872273E-07-1.54817200E-05 2.68097388E-05 2.73041282E-04 2.12719722E-05
 5 19 8.60900155E-08 2.11282431E-05-2.09420213E-05-1.26937684E-04 1.21685892E-05
 5 20-4.42324423E-05-2.07131056E-06 8.31230480E-04 1.44253130E-05 1.76998636E-04
 5 21 3.85092637E-04-9.32910480E-04-8.43419842E-04 7.63570057E-04 1.02757105E-03
 5 22-2.72519187E-05 5.73314097E-06-2.31562219E-05-7.35013082E-05 1.43977466E-05
 5 23 5.62069792E-06-1.38163747E-05 8.24057127E-04 2.72773085E-05-8.77053449E-05
 5 24 5.21822392E-05-1.06723339E-04-4.36576710E-04-4.12757233E-05 3.76769349E-05
 5 25 8.10431979E-06 1.94011997E-04-4.42860828E-04 1.02471642E-04-3.31203371E-05
 5 26-8.10890056E-05 1.05473690E-03-6.03655174E-04 2.40771618E-04 5.72855874E-04
 5 27-2.93056714E-03 1.96495270E-03-1.95092714E-03-1.72326890E-03-1.53990872E-04
 5 28-2.51644695E-04 9.86851888E-05-6.59852514E-05-2.89232896E-04 2.01266949E-04
 5 29-9.94309993E-01-4.22241337E-02-3.60651840E-04 2.22381811E-04 7.80439971E-04
 5 30 1.88361761E-02-1.07926420E-03 6.84649112E-04 3.36540889E-04-3.30665287E-02
 5 31 6.31828539E-03 1.02028927E-03-4.87669889E-04 6.46315157E-03 6.69080742E-03
 5 32 6.24907361E-03 1.68506310E-04 2.59029474E-04-1.73161817E-04-1.87939745E-03
 5 33-1.18880258E-04-6.12562853E-05-8.90660630E-05 6.37750703E-05-3.57947197E-03
 5 34-4.73571607E-04-6.66999945E-04 3.30224057E-04 1.73225510E-02 2.17098355E-03
 5 35 2.98567027E-03-2.73057358E-03 1.94366627E-04 1.68733228E-04 1.50443016E-04
 5 36 1.51137190E-04-1.19903789E-04-1.13758230E-04-1.87789424E-03-1.95953660E-04
 5 37 1.40360573E-05 9.27439803E-05 8.05850257E-05-3.08284761E-03 5.45959307E-04
 5 38 1.12865311E-03-1.30032776E-04 8.80099504E-03-8.37220720E-04-2.28130769E-03
 5 39-1.30447993E-03 8.55581450E-06 3.12359844E-04 8.72141975E-05 2.12041923E-05
 5 40 2.78191641E-06 9.62207774E-05 1.30328069E-04 3.95927612E-04-2.18329934E-05
 5 41 4.41802296E-05 3.06875102E-05 6.65198975E-05 1.26517298E-03 3.31182598E-05
 5 42 3.45681345E-06 4.11075277E-07 7.07398315E-05 4.18966535E-04-1.78905528E-05
 5 43 1.98858475E-06-2.46706276E-05 7.73204068E-05 9.97121132E-04 3.15056274E-06
 5 44 3.05116172E-05-9.67921410E-06 7.01826745E-05 1.07535856E-03-2.98965159E-05
 5 45-3.38515544E-05 1.57475999E-05 1.32743947E-04 5.61875715E-04-3.53708701E-05
 5 46-1.96412842E-05 3.79944349E-06 8.94005615E-07 3.62329206E-05 7.05908013E-06
 5 47-5.08289076E-06-1.12604908E-05 1.16556438E-04-7.83027836E-05 2.71262447E-05
 5 48 1.45664283E-04 1.31530579E-03-2.08009447E-04 2.71125755E-04 4.46804868E-04
 5 49-7.74075068E-04 1.24511046E-04 1.09502730E-04-4.01019552E-04 3.79778142E-05
 5 50 3.85984398E-05 6.29931813E-05-3.42068118E-05-1.09171960E-05 3.03054494E-05
 5 51-1.23811812E-07 4.81864243E-06 2.86652745E-05 1.47933188E-05-7.08129939E-06
 5 52-1.93840336E-04-1.54165804E-04-1.93510598E-05 1.03634712E-05-5.28456638E-04
 5 53-5.25162347E-04 1.39051124E-06 1.41766572E-03-1.22743992E-05-2.16336684E-06
 5 54 2.80673818E-06 2.92738061E-05-1.45447805E-06-3.00812603E-05-2.99673853E-05
 5 55 1.97855908E-04 6.72107997E-06-1.95196879E-06 8.41700061E-06-3.42478492E-05
 5 56 1.76648414E-04-6.34850043E-06-1.19382424E-05 5.93970475E-06 7.60242190E-07
 5 57-5.33869413E-05-5.47637604E-06 1.83226503E-06 2.17573864E-06-6.64775606E-05
 5 58 1.20300152E-03-1.48612647E-05-1.22465728E-05 3.64059072E-06               
 6  1 1.22806291E-04 1.21282008E-04-2.48332676E-05 1.21557257E-04 7.32073576E-05
 6  2-3.56633654E-07 3.22505175E-04-3.83451868E-04-1.55165845E-04-1.34598940E-02
 6  3-1.40612693E-03-1.81725817E-03-1.71562866E-03 1.70239641E-05 5.76463390E-05
 6  4 5.39903353E-05 1.55574656E-05-1.17237435E-05-9.30004457E-06-5.86957618E-03
 6  5-6.30863890E-05 2.40139728E-05-7.96628622E-05-5.47492579E-05-5.19393410E-03
 6  6 1.14114207E-03-2.12330915E-03-8.31646206E-04-1.16405088E-02-2.51136767E-03
 6  7-9.81863657E-03-7.73020188E-03 3.02908970E-04 2.62847100E-04 1.93806325E-04
 6  8-1.03233639E-04 5.57975090E-06 4.42302748E-05 2.79761572E-05 1.70066889E-04
 6  9-6.25444149E-06 4.12407712E-05 2.08360065E-05-1.58021713E-05-5.76938518E-04
 6 10 6.47007277E-06-4.49423250E-05-2.95963517E-05 1.54849296E-05 2.57790360E-04
 6 11-4.28435375E-06 4.07906667E-05 3.97622230E-05 1.66206143E-04 6.28735344E-04
 6 12 2.16673132E-05-2.03536192E-05 1.90425282E-05-9.94301958E-01-4.22230796E-02
 6 13-2.84417376E-04-3.47266568E-04-3.49951182E-04 2.15532794E-02 2.40545248E-03
 6 14-1.51024339E-04 6.51550950E-04 2.86463117E-02 5.98835832E-03-2.11070206E-03
 6 15 4.55368829E-04 6.43759290E-03 6.49229392E-03 6.35516113E-03-1.13378414E-04
 6 16-2.70779991E-05 9.75908603E-05 1.22904402E-04 1.37918139E-03 1.60165037E-05
 6 17-2.10344589E-06 1.26171779E-05-7.92589279E-05-3.02283693E-03 1.04556937E-04
 6 18 1.25651948E-04-1.47175656E-04-9.27966594E-05-2.91519420E-03 1.24804915E-05
 6 19-1.08829163E-04 1.87240771E-04 1.35333650E-04-2.26284428E-05 6.10090751E-06
 6 20 8.45694370E-06-2.68158922E-05-2.92930699E-03 6.21578121E-04 8.81413537E-04
 6 21 1.20237310E-03-1.28855146E-02 1.00776678E-03 2.44928289E-03 2.19376735E-03
 6 22 1.94367321E-04 2.06112897E-04 2.12512200E-04 1.37817718E-04 1.92024592E-04